crystal structure from VMoWS2 with Hexag
   1.00000000000000     
     8.3606293518460113    4.8499861823105448    0.0000000000000000
    -8.3412481796735420    4.8161438029975541    0.0000000000000000
     0.0000000000000000    0.0000000000000000   30.0000000000000000
   V    Mo   W    S 
     3     3     3    18
Direct
  0.6327198237333783 -0.0165538298480516  0.0018333346327217
  0.0199308394019222 -0.0031418893551378 -0.0000520524382205
  0.7050640997375909  0.6855957318202561 -0.0026569764783966
  0.3161686548739178  0.3014014795675238  0.0006722017290345
  0.3289160982180809 -0.0002011258884730  0.0004549804762631
  0.0285820100946545  0.6848468238478943 -0.0008952765300866
  1.0376386450600614  0.3624410240356331 -0.0026348300827686
  0.3153814225301365  0.6769656484787694  0.0003107527939187
  0.6229584828384958  0.3068224798788496  0.0018012823814897
  0.1054880515354836  0.2145982111418605  0.9468341574511893
  0.2128589305592414  0.1017744235100737  0.0557140102242929
  0.1182395856503211  0.5647991738949290  0.9421885765218204
  0.2296505831979656  0.4499596658657675  0.0528687651230102
  0.1090546553364288  0.8922605238339237  0.9452249736177412
  0.2236999397811617  0.7814704732082939  0.0567726938748872
  0.4335713435850716  0.2147881899248255  0.9445865157778849
  0.5496490818144245  0.1038916106845927  0.0549298333341955
  0.4519067190018035  0.5591165766601653  0.9595191026090740
  0.5535026228265143  0.4496970879291899  0.0501556076997738
  0.4439611170919165  0.8895350468864744  0.9467815650122772
  0.5588514200084440  0.7766109280053451  0.0483994738779543
  0.7756866904390445  0.2210871458437887  0.9557765950552048
  0.8869715083195110  0.1119883801241406  0.0408945717958348
  0.7778322520585197  0.5487134197081738  0.9519337586675525
  0.8819134707539322  0.4399770455482294  0.0440946572748694
  0.7818015110873086  0.8962565811157702  0.9532817037252314
  0.8962148939016379  0.7835136270547900  0.0512099210732433
 
  0.00000000E+00  0.00000000E+00  0.00000000E+00
  0.00000000E+00  0.00000000E+00  0.00000000E+00
  0.00000000E+00  0.00000000E+00  0.00000000E+00
  0.00000000E+00  0.00000000E+00  0.00000000E+00
  0.00000000E+00  0.00000000E+00  0.00000000E+00
  0.00000000E+00  0.00000000E+00  0.00000000E+00
  0.00000000E+00  0.00000000E+00  0.00000000E+00
  0.00000000E+00  0.00000000E+00  0.00000000E+00
  0.00000000E+00  0.00000000E+00  0.00000000E+00
  0.00000000E+00  0.00000000E+00  0.00000000E+00
  0.00000000E+00  0.00000000E+00  0.00000000E+00
  0.00000000E+00  0.00000000E+00  0.00000000E+00
  0.00000000E+00  0.00000000E+00  0.00000000E+00
  0.00000000E+00  0.00000000E+00  0.00000000E+00
  0.00000000E+00  0.00000000E+00  0.00000000E+00
  0.00000000E+00  0.00000000E+00  0.00000000E+00
  0.00000000E+00  0.00000000E+00  0.00000000E+00
  0.00000000E+00  0.00000000E+00  0.00000000E+00
  0.00000000E+00  0.00000000E+00  0.00000000E+00
  0.00000000E+00  0.00000000E+00  0.00000000E+00
  0.00000000E+00  0.00000000E+00  0.00000000E+00
  0.00000000E+00  0.00000000E+00  0.00000000E+00
  0.00000000E+00  0.00000000E+00  0.00000000E+00
  0.00000000E+00  0.00000000E+00  0.00000000E+00
  0.00000000E+00  0.00000000E+00  0.00000000E+00
  0.00000000E+00  0.00000000E+00  0.00000000E+00
  0.00000000E+00  0.00000000E+00  0.00000000E+00
