crystal structure from VMoWS2 with Hexag
   1.00000000000000     
     8.3079722423754951    4.8184804993106249    0.0000000000000000
    -8.2877386289667410    4.7834867204128386    0.0000000000000000
     0.0000000000000000    0.0000000000000000   30.0000000000000000
   V    Mo   W    S 
     3     3     3    18
Direct
  0.6335749883122336  0.6501157961673755  0.0021282566516556
  0.0349365563262033  0.6831191513668164 -0.0023150582651554
  0.0349683861808887  0.0182124295489283 -0.0022557670863043
  0.3328119751442615  0.3389608949391728 -0.0001867547225550
  0.3424485429262363  0.0029861252554204 -0.0002807157660355
  0.3327393974745365  0.6619786172575424 -0.0001798658105300
  1.0399209561949203  0.3534393252957985 -0.0022750452044009
  0.6276153771323514 -0.0177526842532057  0.0026111478135476
  0.6273176378727793  0.3117358226983730  0.0026492765246132
  0.1143410515833735  0.2210113809647779  0.9441116114454914
  0.2194717456857766  0.1098171511220455  0.0523140688158573
  0.1142912798739943  0.5600744528624719  0.9440449295132559
  0.2267848076503056  0.4468584011231166  0.0553925051802931
  0.1106054550310177  0.8884705676923212  0.9464621869151711
  0.2191162694252350  0.7760494866439147  0.0525538866632297
  0.4394648203321247  0.2206095339176082  0.9453184257888502
  0.5475549899412603  0.1069281854280295  0.0583059720347812
  0.4493057679730193  0.5580798805733658  0.9460598815671731
  0.5535484356994225  0.4473250364870528  0.0555410347437441
  0.4400416480890274  0.8855381560813117  0.9450468763695004
  0.5537431064335928  0.7729916221325664  0.0555405781077124
  0.7782988433192080  0.2225198098636064  0.9558024985904385
  0.8900755323027144  0.1102633558580663  0.0435183980132198
  0.7772953040232511  0.5565349644897299  0.9575047816049935
  0.8899997212975095  0.4464978699664700  0.0435526829012429
  0.7773547830665878  0.8873240295107148  0.9574459806656530
  0.8905870741451487  0.7785250904841760  0.0415881261445491
 
  0.00000000E+00  0.00000000E+00  0.00000000E+00
  0.00000000E+00  0.00000000E+00  0.00000000E+00
  0.00000000E+00  0.00000000E+00  0.00000000E+00
  0.00000000E+00  0.00000000E+00  0.00000000E+00
  0.00000000E+00  0.00000000E+00  0.00000000E+00
  0.00000000E+00  0.00000000E+00  0.00000000E+00
  0.00000000E+00  0.00000000E+00  0.00000000E+00
  0.00000000E+00  0.00000000E+00  0.00000000E+00
  0.00000000E+00  0.00000000E+00  0.00000000E+00
  0.00000000E+00  0.00000000E+00  0.00000000E+00
  0.00000000E+00  0.00000000E+00  0.00000000E+00
  0.00000000E+00  0.00000000E+00  0.00000000E+00
  0.00000000E+00  0.00000000E+00  0.00000000E+00
  0.00000000E+00  0.00000000E+00  0.00000000E+00
  0.00000000E+00  0.00000000E+00  0.00000000E+00
  0.00000000E+00  0.00000000E+00  0.00000000E+00
  0.00000000E+00  0.00000000E+00  0.00000000E+00
  0.00000000E+00  0.00000000E+00  0.00000000E+00
  0.00000000E+00  0.00000000E+00  0.00000000E+00
  0.00000000E+00  0.00000000E+00  0.00000000E+00
  0.00000000E+00  0.00000000E+00  0.00000000E+00
  0.00000000E+00  0.00000000E+00  0.00000000E+00
  0.00000000E+00  0.00000000E+00  0.00000000E+00
  0.00000000E+00  0.00000000E+00  0.00000000E+00
  0.00000000E+00  0.00000000E+00  0.00000000E+00
  0.00000000E+00  0.00000000E+00  0.00000000E+00
  0.00000000E+00  0.00000000E+00  0.00000000E+00
