crystal structure from VMoWS2 with Hexag
   1.00000000000000     
     8.3911342527791177    4.8202916536453717    0.0000000000000000
    -8.3955343580839319    4.8277932202119853    0.0000000000000000
     0.0000000000000000    0.0000000000000000   30.0000000000000000
   V    Mo   W    S 
     3     3     3    18
Direct
  0.3094742412044838  0.3517857697437435 -0.0023025127040790
 -0.0094978500925964  0.6339301081852646  0.0002056342169413
  0.6732662348010111  0.6394581336453486  0.0008876869473750
  0.6821740603977836  0.3241707137196897  0.0006792827634919
  0.9770184554967475  0.3120614135756806  0.0003135031443635
  0.6671396872551034  0.0191643636795480 -0.0001797141723495
 -0.0203745042066909  0.0176967604321633 -0.0014128633437521
  0.3634581124540346 -0.0018837890287810  0.0013252433108535
  0.3518299316305165  0.6969525678954974  0.0003518966825529
  0.1078173335261887  0.2260802380748507  0.9455198133755532
  0.2248237067167220  0.1178773822104086  0.0432226637409892
  0.1147180546037510  0.5553768368289170  0.9511925775516744
  0.2198298836199109  0.4526535143234703  0.0494897585745481
  0.1088515435523146  0.8862521381574268  0.9588528559992208
  0.2200386167354018  0.7785555601906161  0.0517449601168058
  0.4393738876569670  0.2267534252681682  0.9543826510541042
  0.5592684632322515  0.1142730197108129  0.0572859423004291
  0.4514504947161420  0.5591194151414235  0.9498228912973513
  0.5430278929272669  0.4351268110033490  0.0470887387678988
  0.4521903028073930  0.8960986039366393  0.9436536830105100
  0.5675250622906268  0.7761839355390865  0.0479987621931270
  0.7777345236034403  0.2221712822466338  0.9433804026572300
  0.8821951167884519  0.1093173427255015  0.0563478509110898
  0.7841630341817392  0.5520418437665945  0.9490501489332149
  0.8900349651393580  0.4439710310905176  0.0550730853462799
  0.7686399624501462  0.8794020463710176  0.9501628450105484
  0.8920432399485142  0.7736239850439793  0.0458621115140174
 
  0.00000000E+00  0.00000000E+00  0.00000000E+00
  0.00000000E+00  0.00000000E+00  0.00000000E+00
  0.00000000E+00  0.00000000E+00  0.00000000E+00
  0.00000000E+00  0.00000000E+00  0.00000000E+00
  0.00000000E+00  0.00000000E+00  0.00000000E+00
  0.00000000E+00  0.00000000E+00  0.00000000E+00
  0.00000000E+00  0.00000000E+00  0.00000000E+00
  0.00000000E+00  0.00000000E+00  0.00000000E+00
  0.00000000E+00  0.00000000E+00  0.00000000E+00
  0.00000000E+00  0.00000000E+00  0.00000000E+00
  0.00000000E+00  0.00000000E+00  0.00000000E+00
  0.00000000E+00  0.00000000E+00  0.00000000E+00
  0.00000000E+00  0.00000000E+00  0.00000000E+00
  0.00000000E+00  0.00000000E+00  0.00000000E+00
  0.00000000E+00  0.00000000E+00  0.00000000E+00
  0.00000000E+00  0.00000000E+00  0.00000000E+00
  0.00000000E+00  0.00000000E+00  0.00000000E+00
  0.00000000E+00  0.00000000E+00  0.00000000E+00
  0.00000000E+00  0.00000000E+00  0.00000000E+00
  0.00000000E+00  0.00000000E+00  0.00000000E+00
  0.00000000E+00  0.00000000E+00  0.00000000E+00
  0.00000000E+00  0.00000000E+00  0.00000000E+00
  0.00000000E+00  0.00000000E+00  0.00000000E+00
  0.00000000E+00  0.00000000E+00  0.00000000E+00
  0.00000000E+00  0.00000000E+00  0.00000000E+00
  0.00000000E+00  0.00000000E+00  0.00000000E+00
  0.00000000E+00  0.00000000E+00  0.00000000E+00
