crystal structure from VMoWS2 with Hexag
   1.00000000000000     
     8.3919106067422042    4.8436079032956787    0.0000000000000000
    -8.3752660964081151    4.8145336495326134    0.0000000000000000
     0.0000000000000000    0.0000000000000000   30.0000000000000000
   V    Mo   W    S 
     3     3     3    18
Direct
  0.6313848931424600  0.6529336168416863 -0.0004640187696978
  0.6379104337573793 -0.0122776513541916  0.0002259829320828
  0.3206946311011853  0.6748441514864455 -0.0005830049549283
  0.3323588256066757  0.0064050826117081 -0.0002233482084112
  0.0351433913793013  0.6827729796851583  0.0000856085275799
  0.3504741316107022  0.3121981494252518  0.0006951915410658
  0.0335631756710477 -0.0054224135928568  0.0016050723979596
  0.9930316290474990  0.3654239139388672 -0.0016245151530985
  0.6433013032424858  0.3179955723866753 -0.0003910551697305
  0.1098868665681567  0.2231005955391835  0.9536180577142543
  0.2311697525425409  0.1109348722303338  0.0574360230245117
  0.1198040924532316  0.5641839537044613  0.9437354850457943
  0.2228324032768883  0.4423972607595904  0.0441659782600194
  0.1185842849308463  0.8904817462521917  0.9440227221854303
  0.2359602442624249  0.7829605885117851  0.0543110842516674
  0.4463519957358592  0.2155974744637464  0.9431218983711552
  0.5605650658268485  0.1106379196197097  0.0532844537463797
  0.4340209702146995  0.5480409210890648  0.9506557569646853
  0.5592607799892204  0.4486307873640002  0.0533740075001738
  0.4449174472270548  0.8831343432060903  0.9477541502048851
  0.5462204615880817  0.7741266211561424  0.0497849310236005
  0.7718865531888949  0.2165814517086276  0.9492685757158785
  0.8895958101694215  0.1120458197395870  0.0416237160062924
  0.7787546992838298  0.5623272217203849  0.9567333295863849
  0.8863346283469618  0.4551435035894644  0.0518696751903609
  0.7779046899942598  0.8870801886668366  0.9573228998929297
  0.8863012932790144  0.7759357827276183  0.0485912413727688
 
  0.00000000E+00  0.00000000E+00  0.00000000E+00
  0.00000000E+00  0.00000000E+00  0.00000000E+00
  0.00000000E+00  0.00000000E+00  0.00000000E+00
  0.00000000E+00  0.00000000E+00  0.00000000E+00
  0.00000000E+00  0.00000000E+00  0.00000000E+00
  0.00000000E+00  0.00000000E+00  0.00000000E+00
  0.00000000E+00  0.00000000E+00  0.00000000E+00
  0.00000000E+00  0.00000000E+00  0.00000000E+00
  0.00000000E+00  0.00000000E+00  0.00000000E+00
  0.00000000E+00  0.00000000E+00  0.00000000E+00
  0.00000000E+00  0.00000000E+00  0.00000000E+00
  0.00000000E+00  0.00000000E+00  0.00000000E+00
  0.00000000E+00  0.00000000E+00  0.00000000E+00
  0.00000000E+00  0.00000000E+00  0.00000000E+00
  0.00000000E+00  0.00000000E+00  0.00000000E+00
  0.00000000E+00  0.00000000E+00  0.00000000E+00
  0.00000000E+00  0.00000000E+00  0.00000000E+00
  0.00000000E+00  0.00000000E+00  0.00000000E+00
  0.00000000E+00  0.00000000E+00  0.00000000E+00
  0.00000000E+00  0.00000000E+00  0.00000000E+00
  0.00000000E+00  0.00000000E+00  0.00000000E+00
  0.00000000E+00  0.00000000E+00  0.00000000E+00
  0.00000000E+00  0.00000000E+00  0.00000000E+00
  0.00000000E+00  0.00000000E+00  0.00000000E+00
  0.00000000E+00  0.00000000E+00  0.00000000E+00
  0.00000000E+00  0.00000000E+00  0.00000000E+00
  0.00000000E+00  0.00000000E+00  0.00000000E+00
