crystal structure from VMoWS2 with Hexag
   1.00000000000000     
     8.3706897367676572    4.7873495361404945    0.0000000000000000
    -8.3879550944968138    4.8172454363372390    0.0000000000000000
     0.0000000000000000    0.0000000000000000   30.0000000000000000
   V    Mo   W    S 
     3     3     3    18
Direct
  0.3453631907328154  0.6421184348332013  0.0017790695590305
  0.6624152927773775  0.3290925456019273  0.0014103317933953
  1.0047759832383920  0.3325872789312440 -0.0004459587446671
 -0.0147583571003771  0.6860829039240960 -0.0010940826620365
  0.3101851614575060  0.3088858993943579 -0.0001611102861011
  0.0031714465686644 -0.0068724799749544  0.0003022398725428
  0.3083694366792226  0.0105798201871220 -0.0009937706330113
  0.6902796911162441 -0.0045138574355319  0.0001116693576180
  0.6892217370488389  0.6943748443492934 -0.0001555045065273
  0.1039905846652423  0.2220142080006813  0.9472685231421023
  0.2169968713986029  0.1084710846602402  0.0568189970911879
  0.1167205580698083  0.5603313453954325  0.9551448792692431
  0.2178191787064225  0.4408811798953595  0.0523453621588221
  0.1094887351974566  0.8913199131383623  0.9431668035632143
  0.2250641055110663  0.7739792757168205  0.0454099371236202
  0.4460217330427327  0.2227461547864619  0.9473802373672761
  0.5523807488559963  0.1064279775686187  0.0463556627832618
  0.4474158781612402  0.5512611196189490  0.9503216554655041
  0.5569881093349277  0.4472327982493547  0.0461177780179042
  0.4409960294967835  0.8858636774208238  0.9575844166785117
  0.5563536544407043  0.7760727165229534  0.0529981795227866
  0.7816026904832255  0.2262434557825401  0.9508133681037305
  0.8954054567062564  0.1201695446564313  0.0527152904400416
  0.7707656129987299  0.5519870342400878  0.9480754991502831
  0.8877007066497259  0.4454817881957676  0.0466086423674979
  0.7851941443846167  0.8928838914688153  0.9434980565592397
  0.8882860728147609  0.7825118983491260  0.0566237266455159
 
  0.00000000E+00  0.00000000E+00  0.00000000E+00
  0.00000000E+00  0.00000000E+00  0.00000000E+00
  0.00000000E+00  0.00000000E+00  0.00000000E+00
  0.00000000E+00  0.00000000E+00  0.00000000E+00
  0.00000000E+00  0.00000000E+00  0.00000000E+00
  0.00000000E+00  0.00000000E+00  0.00000000E+00
  0.00000000E+00  0.00000000E+00  0.00000000E+00
  0.00000000E+00  0.00000000E+00  0.00000000E+00
  0.00000000E+00  0.00000000E+00  0.00000000E+00
  0.00000000E+00  0.00000000E+00  0.00000000E+00
  0.00000000E+00  0.00000000E+00  0.00000000E+00
  0.00000000E+00  0.00000000E+00  0.00000000E+00
  0.00000000E+00  0.00000000E+00  0.00000000E+00
  0.00000000E+00  0.00000000E+00  0.00000000E+00
  0.00000000E+00  0.00000000E+00  0.00000000E+00
  0.00000000E+00  0.00000000E+00  0.00000000E+00
  0.00000000E+00  0.00000000E+00  0.00000000E+00
  0.00000000E+00  0.00000000E+00  0.00000000E+00
  0.00000000E+00  0.00000000E+00  0.00000000E+00
  0.00000000E+00  0.00000000E+00  0.00000000E+00
  0.00000000E+00  0.00000000E+00  0.00000000E+00
  0.00000000E+00  0.00000000E+00  0.00000000E+00
  0.00000000E+00  0.00000000E+00  0.00000000E+00
  0.00000000E+00  0.00000000E+00  0.00000000E+00
  0.00000000E+00  0.00000000E+00  0.00000000E+00
  0.00000000E+00  0.00000000E+00  0.00000000E+00
  0.00000000E+00  0.00000000E+00  0.00000000E+00
