crystal structure from VMoWS2 with Hexag
   1.00000000000000     
     8.3521196662019932    4.7892748147563839    0.0000000000000000
    -8.3811932077138334    4.8396395468370770    0.0000000000000000
     0.0000000000000000    0.0000000000000000   30.0000000000000000
   V    Mo   W    S 
     3     3     3    18
Direct
 -0.0240690727222556  0.6308539224241454 -0.0013677613885183
  0.6905544482603867 -0.0118874347945334  0.0013716185265465
  0.3330886443809735  0.6472674125184144 -0.0000080468698398
  0.6472655961491121  0.3493872151562795 -0.0002577070656088
  0.0193435020407623  0.0353886818475218  0.0002587808336224
  0.3332813017062545  0.3313899283818580  0.0000012342298485
  1.0136194337999700  0.3219075278016167  0.0001399951025135
  0.3332945778734377  0.0354255079657008 -0.0000105800861474
  0.6529362387768491  0.6415990913941051 -0.0001321544348833
  0.1182399703361462  0.2305467402528201  0.9434410596144572
  0.2229058073831310  0.1192405805521198  0.0567864269076531
  0.1121185443141806  0.5536695214883004  0.9497903944568945
  0.2224060226904042  0.4501619986557896  0.0536122297788668
  0.1088486745211386  0.8850263540113134  0.9524078763292293
  0.2192070985996659  0.7780568769848057  0.0420016169954423
  0.4437251305531018  0.2296696646985564  0.9432116716272089
  0.5577332977357408  0.1094906962823946  0.0475777492621640
  0.4441113254473741  0.5610246842126144  0.9464024765868977
  0.5483368431469254  0.4456260014159060  0.0565660467811208
  0.4473019439627894  0.8920425249134183  0.9579926102077974
  0.5542643588921667  0.7747764922212892  0.0501942386382651
  0.7712144439296629  0.2169623961874053  0.9562223084906717
  0.8885845307486997  0.1111483061682206  0.0551469359074751
  0.7780003290087333  0.5559001782494262  0.9448545214255611
  0.8821357356472795  0.4366837907872449  0.0497332194194314
  0.7844325023794239  0.8878012112168050  0.9502715645113136
  0.8953332238749305  0.7790545824840319  0.0437915734120063
 
  0.00000000E+00  0.00000000E+00  0.00000000E+00
  0.00000000E+00  0.00000000E+00  0.00000000E+00
  0.00000000E+00  0.00000000E+00  0.00000000E+00
  0.00000000E+00  0.00000000E+00  0.00000000E+00
  0.00000000E+00  0.00000000E+00  0.00000000E+00
  0.00000000E+00  0.00000000E+00  0.00000000E+00
  0.00000000E+00  0.00000000E+00  0.00000000E+00
  0.00000000E+00  0.00000000E+00  0.00000000E+00
  0.00000000E+00  0.00000000E+00  0.00000000E+00
  0.00000000E+00  0.00000000E+00  0.00000000E+00
  0.00000000E+00  0.00000000E+00  0.00000000E+00
  0.00000000E+00  0.00000000E+00  0.00000000E+00
  0.00000000E+00  0.00000000E+00  0.00000000E+00
  0.00000000E+00  0.00000000E+00  0.00000000E+00
  0.00000000E+00  0.00000000E+00  0.00000000E+00
  0.00000000E+00  0.00000000E+00  0.00000000E+00
  0.00000000E+00  0.00000000E+00  0.00000000E+00
  0.00000000E+00  0.00000000E+00  0.00000000E+00
  0.00000000E+00  0.00000000E+00  0.00000000E+00
  0.00000000E+00  0.00000000E+00  0.00000000E+00
  0.00000000E+00  0.00000000E+00  0.00000000E+00
  0.00000000E+00  0.00000000E+00  0.00000000E+00
  0.00000000E+00  0.00000000E+00  0.00000000E+00
  0.00000000E+00  0.00000000E+00  0.00000000E+00
  0.00000000E+00  0.00000000E+00  0.00000000E+00
  0.00000000E+00  0.00000000E+00  0.00000000E+00
  0.00000000E+00  0.00000000E+00  0.00000000E+00
