crystal structure from VMoWS2 with Hexag
   1.00000000000000     
     8.3805423812928783    4.8444802444691684    0.0000000000000000
    -8.3789377808067513    4.8417512777150975    0.0000000000000000
     0.0000000000000000    0.0000000000000000   30.0000000000000000
   V    Mo   W    S 
     3     3     3    18
Direct
  1.0194790975227175  0.3679983074349110  0.0007335005198938
  0.6972282979913184  0.3633004043107992 -0.0000771691250973
  0.7017614414854095  0.6859581948996072 -0.0008823738830525
  0.0064254725981686  0.6730102144773855 -0.0000289322625167
  0.3193121177175328  0.6851556309225096  0.0002923928666485
  0.0183398932610510 -0.0139709544680475 -0.0003133589624792
  0.3108350459392338 -0.0221746017414903  0.0000611740138332
  0.3117396218268483  0.2934904402321694 -0.0014914430810717
  0.6265539711652168 -0.0205319377223481  0.0017151464758145
  0.1025314089426904  0.2186218901323037  0.9494542952685526
  0.2197668493911456  0.1027904696317184  0.0559896084090616
  0.1090893496419481  0.5539725075673857  0.9458953239102799
  0.2229128228935922  0.4416565678989359  0.0491674436585924
  0.1104893674827627  0.8835057788311558  0.9428884897114547
  0.2167865882563547  0.7770629458257297  0.0571326742115969
  0.4538409771609859  0.2195240224799898  0.9518992414986632
  0.5523068716935007  0.1206864813606897  0.0484121903136952
  0.4457690736528947  0.5529113274623717  0.9597078561842884
  0.5612544958827210  0.4490707464936859  0.0453921531963899
  0.4361823644774718  0.8871042055445183  0.9441598567589481
  0.5520714759189099  0.7690481392571135  0.0503565007220717
  0.7826236674353843  0.2274443821668968  0.9544135172134823
  0.8859630068307713  0.1122062295193469  0.0402891904869139
  0.7783280073255260  0.5607389509755232  0.9480968396949476
  0.8945551750236950  0.4446770290550563  0.0518101440280835
  0.7747999473770281  0.8895130605150485  0.9509240834785930
  0.8872680445420966  0.7754440204146056  0.0540015538924119
 
  0.00000000E+00  0.00000000E+00  0.00000000E+00
  0.00000000E+00  0.00000000E+00  0.00000000E+00
  0.00000000E+00  0.00000000E+00  0.00000000E+00
  0.00000000E+00  0.00000000E+00  0.00000000E+00
  0.00000000E+00  0.00000000E+00  0.00000000E+00
  0.00000000E+00  0.00000000E+00  0.00000000E+00
  0.00000000E+00  0.00000000E+00  0.00000000E+00
  0.00000000E+00  0.00000000E+00  0.00000000E+00
  0.00000000E+00  0.00000000E+00  0.00000000E+00
  0.00000000E+00  0.00000000E+00  0.00000000E+00
  0.00000000E+00  0.00000000E+00  0.00000000E+00
  0.00000000E+00  0.00000000E+00  0.00000000E+00
  0.00000000E+00  0.00000000E+00  0.00000000E+00
  0.00000000E+00  0.00000000E+00  0.00000000E+00
  0.00000000E+00  0.00000000E+00  0.00000000E+00
  0.00000000E+00  0.00000000E+00  0.00000000E+00
  0.00000000E+00  0.00000000E+00  0.00000000E+00
  0.00000000E+00  0.00000000E+00  0.00000000E+00
  0.00000000E+00  0.00000000E+00  0.00000000E+00
  0.00000000E+00  0.00000000E+00  0.00000000E+00
  0.00000000E+00  0.00000000E+00  0.00000000E+00
  0.00000000E+00  0.00000000E+00  0.00000000E+00
  0.00000000E+00  0.00000000E+00  0.00000000E+00
  0.00000000E+00  0.00000000E+00  0.00000000E+00
  0.00000000E+00  0.00000000E+00  0.00000000E+00
  0.00000000E+00  0.00000000E+00  0.00000000E+00
  0.00000000E+00  0.00000000E+00  0.00000000E+00
