crystal structure from VMoWS2 with Hexag
   1.00000000000000     
     8.3696022029464618    4.8275288469076987    0.0000000000000000
    -8.3423315067947286    4.7803532994386027    0.0000000000000000
     0.0000000000000000    0.0000000000000000   30.0000000000000000
   V    Mo   W    S 
     3     3     3    18
Direct
  0.0299277013004503 -0.0004220225264093 -0.0000383443356700
  0.9905174026694439  0.3552336306610825 -0.0011432746780690
  0.6417455983538956  0.6358308040192620  0.0005834295642187
  0.0349438581840170  0.6844528091423004  0.0001076749931898
  0.3381278619716823 -0.0014109641870888  0.0002269757238560
  0.3506767098383901  0.3146695436868389  0.0002958116654250
  0.3231649145637546  0.6837966997743089 -0.0002646758313633
  0.6430804159589700  0.0074007028600783 -0.0003594792630159
  0.6433255194950162  0.3171757065205081  0.0004441029552667
  0.1086957470415938  0.2210340549555890  0.9534686501030194
  0.2213307368631521  0.1072812884418756  0.0545671757928514
  0.1118866137506788  0.5547355835348913  0.9449391058004841
  0.2188346286529864  0.4393104154694067  0.0438677594326873
  0.1148115695149790  0.8918721353120900  0.9456338670219139
  0.2291389579467901  0.7844960285903453  0.0569847531431607
  0.4454849511502461  0.2150430633295037  0.9435954414423706
  0.5544591709614508  0.1135965856081105  0.0568527542641309
  0.4390433339483366  0.5503863390751006  0.9511092364000047
  0.5564572664474445  0.4437685659051730  0.0556305698889546
  0.4428607337746417  0.8866883705574776  0.9435901889555225
  0.5541590104485485  0.7764694674265734  0.0495357826197626
  0.7777476249896530  0.2260768399680910  0.9477176810208514
  0.8922613574712016  0.1141553094201966  0.0425485710191717
  0.7809599429580157  0.5596225237717264  0.9546237908815688
  0.8883432403677085  0.4501641308138453  0.0498874759123723
  0.7772597259175943  0.8862311108457995  0.9583978238927431
  0.8889698588963617  0.7805557305009286  0.0471970508145736
 
  0.00000000E+00  0.00000000E+00  0.00000000E+00
  0.00000000E+00  0.00000000E+00  0.00000000E+00
  0.00000000E+00  0.00000000E+00  0.00000000E+00
  0.00000000E+00  0.00000000E+00  0.00000000E+00
  0.00000000E+00  0.00000000E+00  0.00000000E+00
  0.00000000E+00  0.00000000E+00  0.00000000E+00
  0.00000000E+00  0.00000000E+00  0.00000000E+00
  0.00000000E+00  0.00000000E+00  0.00000000E+00
  0.00000000E+00  0.00000000E+00  0.00000000E+00
  0.00000000E+00  0.00000000E+00  0.00000000E+00
  0.00000000E+00  0.00000000E+00  0.00000000E+00
  0.00000000E+00  0.00000000E+00  0.00000000E+00
  0.00000000E+00  0.00000000E+00  0.00000000E+00
  0.00000000E+00  0.00000000E+00  0.00000000E+00
  0.00000000E+00  0.00000000E+00  0.00000000E+00
  0.00000000E+00  0.00000000E+00  0.00000000E+00
  0.00000000E+00  0.00000000E+00  0.00000000E+00
  0.00000000E+00  0.00000000E+00  0.00000000E+00
  0.00000000E+00  0.00000000E+00  0.00000000E+00
  0.00000000E+00  0.00000000E+00  0.00000000E+00
  0.00000000E+00  0.00000000E+00  0.00000000E+00
  0.00000000E+00  0.00000000E+00  0.00000000E+00
  0.00000000E+00  0.00000000E+00  0.00000000E+00
  0.00000000E+00  0.00000000E+00  0.00000000E+00
  0.00000000E+00  0.00000000E+00  0.00000000E+00
  0.00000000E+00  0.00000000E+00  0.00000000E+00
  0.00000000E+00  0.00000000E+00  0.00000000E+00
