crystal structure from VMoWS2 with Hexag
   1.00000000000000     
     8.3396245355030807    4.8023779063646153    0.0000000000000000
    -8.3343172829704244    4.7931040748885350    0.0000000000000000
     0.0000000000000000    0.0000000000000000   30.0000000000000000
   V    Mo   W    S 
     3     3     3    18
Direct
  0.6854729977456177 -0.0201348879527347  0.0029387119370689
 -0.0209577630136133  0.6858531838621482 -0.0028495283866246
  0.6501275793507993  0.3491370066119158 -0.0017023079317579
  0.6456044073396341  0.6493773100149176 -0.0001020549739237
  0.3287627888063090  0.3339238038996816 -0.0002469088661714
  0.0204754184957217  0.0200107721904412 -0.0000661075519744
  1.0202293554057849  0.3186282686594386  0.0015912768109762
  0.3184145860819846  0.0207778808983558 -0.0014711277408740
  0.3475408846579923  0.6444068045644432  0.0018514753029943
  0.1149783264497083  0.2232228993624011  0.9434612115205329
  0.2241207580774572  0.1162715139097425  0.0561089667333873
  0.1090321659260640  0.5577060272491772  0.9551192850416202
  0.2234649775771138  0.4427296732857390  0.0573980950336192
  0.1085541937734256  0.8898405790498525  0.9447370337334775
  0.2169490945918444  0.7748136484598439  0.0429206900088290
  0.4486338523616301  0.2265123010669392  0.9450193676966655
  0.5594881694732120  0.1124203487507524  0.0436976507994948
  0.4427363745593668  0.5512859148782260  0.9436679870215294
  0.5553956986553317  0.4402074183343432  0.0538236603174007
  0.4486582262158457  0.8905842670482718  0.9573047893161709
  0.5570062513607137  0.7760160792463677  0.0556898135164071
  0.7750473469726890  0.2181955733056289  0.9578151002630136
  0.8894548277145116  0.1086379791117378  0.0552250651121924
  0.7743809020296670  0.5530380577305687  0.9461213607529854
  0.8885996813952625  0.4478027280769797  0.0422602322423554
  0.7796696294976687  0.8871959553158810  0.9497536045700381
  0.8863737219352386  0.7797533465465136  0.0499325569205577
 
  0.00000000E+00  0.00000000E+00  0.00000000E+00
  0.00000000E+00  0.00000000E+00  0.00000000E+00
  0.00000000E+00  0.00000000E+00  0.00000000E+00
  0.00000000E+00  0.00000000E+00  0.00000000E+00
  0.00000000E+00  0.00000000E+00  0.00000000E+00
  0.00000000E+00  0.00000000E+00  0.00000000E+00
  0.00000000E+00  0.00000000E+00  0.00000000E+00
  0.00000000E+00  0.00000000E+00  0.00000000E+00
  0.00000000E+00  0.00000000E+00  0.00000000E+00
  0.00000000E+00  0.00000000E+00  0.00000000E+00
  0.00000000E+00  0.00000000E+00  0.00000000E+00
  0.00000000E+00  0.00000000E+00  0.00000000E+00
  0.00000000E+00  0.00000000E+00  0.00000000E+00
  0.00000000E+00  0.00000000E+00  0.00000000E+00
  0.00000000E+00  0.00000000E+00  0.00000000E+00
  0.00000000E+00  0.00000000E+00  0.00000000E+00
  0.00000000E+00  0.00000000E+00  0.00000000E+00
  0.00000000E+00  0.00000000E+00  0.00000000E+00
  0.00000000E+00  0.00000000E+00  0.00000000E+00
  0.00000000E+00  0.00000000E+00  0.00000000E+00
  0.00000000E+00  0.00000000E+00  0.00000000E+00
  0.00000000E+00  0.00000000E+00  0.00000000E+00
  0.00000000E+00  0.00000000E+00  0.00000000E+00
  0.00000000E+00  0.00000000E+00  0.00000000E+00
  0.00000000E+00  0.00000000E+00  0.00000000E+00
  0.00000000E+00  0.00000000E+00  0.00000000E+00
  0.00000000E+00  0.00000000E+00  0.00000000E+00
