crystal structure from VMoWS2 with Hexag
   1.00000000000000     
     8.3364704837756545    4.8114806713788063    0.0000000000000000
    -8.3383744550571421    4.8147797995591102    0.0000000000000000
     0.0000000000000000    0.0000000000000000   30.0000000000000000
   V    Mo   W    S 
     3     3     3    18
Direct
  0.6656894064029923  0.6971041160772642 -0.0000530113558560
  0.3506633149940025 -0.0181593404814881  0.0002265401065772
  0.9826685437708600  0.2978968777681449 -0.0001331239316468
 -0.0152342066226171  0.0063351694286602 -0.0004971206456211
  0.6666962902396739 -0.0061058584243630  0.0000262927284856
  0.3480778383237097  0.6877053969569112  0.0005285356443663
  0.0311741267143934  0.7020257065940551  0.0000377088469409
  0.3028939337711318  0.3390711953539968 -0.0001555831689514
  0.6667429914972433  0.2966267719003309  0.0000027299049097
  0.1033270288151877  0.2240951133481954  0.9445170550853735
  0.2277006924891760  0.1100518808715487  0.0450480612793989
  0.1056626692230797  0.5487375195477648  0.9547313147278598
  0.2047144856708583  0.4440099587981298  0.0513091065237486
  0.1284820566856271  0.9057525180310522  0.9488049227620020
  0.2299770089189838  0.7875707430329382  0.0555557544965080
  0.4404553380639621  0.2168935585788954  0.9530677169472862
  0.5491814421679841  0.0989490694523106  0.0549998759812893
  0.4494823326952160  0.5601112325685116  0.9491077276435809
  0.5555748484442128  0.4461584456222671  0.0421456641151473
  0.4484392796045244  0.8913441645846508  0.9451271404846060
  0.5572059597868719  0.7750273731738484  0.0552404955135600
  0.7841669047095924  0.2162446666754549  0.9450387538530246
  0.8847454107430895  0.1095536335901472  0.0549484350526862
  0.7776487310915444  0.5573149612329622  0.9579431985116365
  0.8926012690744040  0.4427993543919184  0.0470476373822290
  0.7758998228131052  0.8842218838182602  0.9448061116673440
  0.8835769333481708  0.7768783409852055  0.0505779590435060
 
  0.00000000E+00  0.00000000E+00  0.00000000E+00
  0.00000000E+00  0.00000000E+00  0.00000000E+00
  0.00000000E+00  0.00000000E+00  0.00000000E+00
  0.00000000E+00  0.00000000E+00  0.00000000E+00
  0.00000000E+00  0.00000000E+00  0.00000000E+00
  0.00000000E+00  0.00000000E+00  0.00000000E+00
  0.00000000E+00  0.00000000E+00  0.00000000E+00
  0.00000000E+00  0.00000000E+00  0.00000000E+00
  0.00000000E+00  0.00000000E+00  0.00000000E+00
  0.00000000E+00  0.00000000E+00  0.00000000E+00
  0.00000000E+00  0.00000000E+00  0.00000000E+00
  0.00000000E+00  0.00000000E+00  0.00000000E+00
  0.00000000E+00  0.00000000E+00  0.00000000E+00
  0.00000000E+00  0.00000000E+00  0.00000000E+00
  0.00000000E+00  0.00000000E+00  0.00000000E+00
  0.00000000E+00  0.00000000E+00  0.00000000E+00
  0.00000000E+00  0.00000000E+00  0.00000000E+00
  0.00000000E+00  0.00000000E+00  0.00000000E+00
  0.00000000E+00  0.00000000E+00  0.00000000E+00
  0.00000000E+00  0.00000000E+00  0.00000000E+00
  0.00000000E+00  0.00000000E+00  0.00000000E+00
  0.00000000E+00  0.00000000E+00  0.00000000E+00
  0.00000000E+00  0.00000000E+00  0.00000000E+00
  0.00000000E+00  0.00000000E+00  0.00000000E+00
  0.00000000E+00  0.00000000E+00  0.00000000E+00
  0.00000000E+00  0.00000000E+00  0.00000000E+00
  0.00000000E+00  0.00000000E+00  0.00000000E+00
