crystal structure from VMoWS2 with Hexag
   1.00000000000000     
     8.3895426852646509    4.8134700783827613    0.0000000000000000
    -8.4007606159475188    4.8331346714712851    0.0000000000000000
     0.0000000000000000    0.0000000000000000   30.0000000000000000
   V    Mo   W    S 
     3     3     3    18
Direct
  0.0222060054038007  0.6619762800773850  0.0010371413701354
  0.6824675550484762  0.6378561007645674  0.0036190143211718
  0.3064238762488949  0.3489627311330623 -0.0023934242457915
  0.3532201099876032 -0.0165255207083751  0.0025711879187464
  0.9882203715503545  0.3212650775044950 -0.0003232310205993
  0.3249297845872125  0.6844153837352677 -0.0014965081772437
 -0.0141389887608013  0.0283829999104736 -0.0020591876372712
  0.6630471469740293  0.0184070043889346 -0.0007216689210973
  0.6738903457671898  0.3113190505489863  0.0007769693205869
  0.1109333311038902  0.2319866667390140  0.9437952312106760
  0.2225999372477426  0.1162095127952649  0.0434594157874405
  0.1089719682937812  0.5588451793992872  0.9470686048390379
  0.2193186995181778  0.4487102771219911  0.0506689496700167
  0.1098591029999785  0.8918456222330171  0.9565893526360654
  0.2192188996934687  0.7749196824564878  0.0560890077148978
  0.4389031847551497  0.2234487998938721  0.9556255964112570
  0.5568623309976781  0.1087269369441496  0.0577740346947710
  0.4521907074692935  0.5583332886422941  0.9522740546251511
  0.5428252958700467  0.4305726960733533  0.0479180683780301
  0.4502384314420938  0.8908707476834034  0.9440013055187110
  0.5631113181073323  0.7721226757535171  0.0438904609509467
  0.7775550498732241  0.2207130577723401  0.9430876728264674
  0.8809540439604983  0.1129599459099262  0.0550759834221912
  0.7873551311737473  0.5509101335447704  0.9513240802140630
  0.8897398110027629  0.4490177561144094  0.0524794619644333
  0.7694530807773680  0.8782054064137351  0.9513754122694492
  0.8978579223439644  0.7837569606319392  0.0464929131377554
 
  0.00000000E+00  0.00000000E+00  0.00000000E+00
  0.00000000E+00  0.00000000E+00  0.00000000E+00
  0.00000000E+00  0.00000000E+00  0.00000000E+00
  0.00000000E+00  0.00000000E+00  0.00000000E+00
  0.00000000E+00  0.00000000E+00  0.00000000E+00
  0.00000000E+00  0.00000000E+00  0.00000000E+00
  0.00000000E+00  0.00000000E+00  0.00000000E+00
  0.00000000E+00  0.00000000E+00  0.00000000E+00
  0.00000000E+00  0.00000000E+00  0.00000000E+00
  0.00000000E+00  0.00000000E+00  0.00000000E+00
  0.00000000E+00  0.00000000E+00  0.00000000E+00
  0.00000000E+00  0.00000000E+00  0.00000000E+00
  0.00000000E+00  0.00000000E+00  0.00000000E+00
  0.00000000E+00  0.00000000E+00  0.00000000E+00
  0.00000000E+00  0.00000000E+00  0.00000000E+00
  0.00000000E+00  0.00000000E+00  0.00000000E+00
  0.00000000E+00  0.00000000E+00  0.00000000E+00
  0.00000000E+00  0.00000000E+00  0.00000000E+00
  0.00000000E+00  0.00000000E+00  0.00000000E+00
  0.00000000E+00  0.00000000E+00  0.00000000E+00
  0.00000000E+00  0.00000000E+00  0.00000000E+00
  0.00000000E+00  0.00000000E+00  0.00000000E+00
  0.00000000E+00  0.00000000E+00  0.00000000E+00
  0.00000000E+00  0.00000000E+00  0.00000000E+00
  0.00000000E+00  0.00000000E+00  0.00000000E+00
  0.00000000E+00  0.00000000E+00  0.00000000E+00
  0.00000000E+00  0.00000000E+00  0.00000000E+00
