crystal structure from VMoWS2 with Hexag
   1.00000000000000     
     8.3832931110844893    4.8283401578751333    0.0000000000000000
    -8.3917443684940114    4.8428432367992080    0.0000000000000000
     0.0000000000000000    0.0000000000000000   30.0000000000000000
   V    Mo   W    S 
     3     3     3    18
Direct
  0.6850546567315435  0.6481252417228975  0.0006187213124239
  0.0004466029593930 -0.0245190565178435  0.0003127254694148
  0.3170824638761252 -0.0343828962473537 -0.0006933365012405
 -0.0016987059375890  0.6589068159467713  0.0000038858307866
  0.9984494272263839  0.3528495914279380  0.0000256474735196
  0.7002014153125418  0.3470218773364977 -0.0002285937295421
  0.3104344223097268  0.3500145836706946 -0.0018018596696201
  0.3004457569757935  0.6479107581552229  0.0000384463036452
  0.6893926108632259  0.0394904653016145  0.0016456417284654
  0.0984262794840798  0.2127047328513083  0.9506450567076518
  0.2217739822430290  0.1068208918646412  0.0461988988374886
  0.1069702634752241  0.5570758932416121  0.9431329590888493
  0.2167734714371874  0.4468259791123502  0.0559478089903454
  0.1142998924074510  0.8901196875917137  0.9487835205731086
  0.2219198435219528  0.7791558579145418  0.0541849537031294
  0.4401822160099860  0.2203751125721942  0.9595182906414612
  0.5516917304724562  0.1144268327558670  0.0498414338519373
  0.4486186413546363  0.5639854982175873  0.9502060146746100
  0.5534180091189910  0.4433939516753174  0.0483014376791915
  0.4461821734712533  0.8899085877086613  0.9514010681307032
  0.5588111845041817  0.7787158714131484  0.0402724383943969
  0.7830419253140395  0.2283149010099505  0.9437934493103044
  0.9004881368094821  0.1146876916475885  0.0496402027098706
  0.7786592107893265  0.5569630315228310  0.9454916257933375
  0.8928772843660293  0.4502235179728027  0.0568318596790329
  0.7787894644190603  0.8842473344199078  0.9541762922141582
  0.8854820939214690  0.7748516991891158  0.0517113100025664
 
  0.00000000E+00  0.00000000E+00  0.00000000E+00
  0.00000000E+00  0.00000000E+00  0.00000000E+00
  0.00000000E+00  0.00000000E+00  0.00000000E+00
  0.00000000E+00  0.00000000E+00  0.00000000E+00
  0.00000000E+00  0.00000000E+00  0.00000000E+00
  0.00000000E+00  0.00000000E+00  0.00000000E+00
  0.00000000E+00  0.00000000E+00  0.00000000E+00
  0.00000000E+00  0.00000000E+00  0.00000000E+00
  0.00000000E+00  0.00000000E+00  0.00000000E+00
  0.00000000E+00  0.00000000E+00  0.00000000E+00
  0.00000000E+00  0.00000000E+00  0.00000000E+00
  0.00000000E+00  0.00000000E+00  0.00000000E+00
  0.00000000E+00  0.00000000E+00  0.00000000E+00
  0.00000000E+00  0.00000000E+00  0.00000000E+00
  0.00000000E+00  0.00000000E+00  0.00000000E+00
  0.00000000E+00  0.00000000E+00  0.00000000E+00
  0.00000000E+00  0.00000000E+00  0.00000000E+00
  0.00000000E+00  0.00000000E+00  0.00000000E+00
  0.00000000E+00  0.00000000E+00  0.00000000E+00
  0.00000000E+00  0.00000000E+00  0.00000000E+00
  0.00000000E+00  0.00000000E+00  0.00000000E+00
  0.00000000E+00  0.00000000E+00  0.00000000E+00
  0.00000000E+00  0.00000000E+00  0.00000000E+00
  0.00000000E+00  0.00000000E+00  0.00000000E+00
  0.00000000E+00  0.00000000E+00  0.00000000E+00
  0.00000000E+00  0.00000000E+00  0.00000000E+00
  0.00000000E+00  0.00000000E+00  0.00000000E+00
