crystal structure from VMoWS2 with Hexag
   1.00000000000000     
     8.3242499462805206    4.8205885433681415    0.0000000000000000
    -8.3259440168988679    4.8235122982607876    0.0000000000000000
     0.0000000000000000    0.0000000000000000   30.0000000000000000
   V    Mo   W    S 
     3     3     3    18
Direct
  0.7020454764761481  0.3421478184811618 -0.0014883508608729
  0.6885277534250996  0.6918526996374971  0.0002671408743105
  0.3480404045459357  0.7043280173183829  0.0021022838974099
  0.6914539908208820  0.0076332268278419 -0.0005959141905379
 -0.0030792455073722 -0.0032882326145301 -0.0000815841910732
  0.0079129810713272  0.6922618138451515  0.0005914857164184
  0.9848955280453281  0.2984081085225312 -0.0005405227653238
  0.2984236130968492 -0.0152504606280060  0.0002326380886113
  0.2992088727656672  0.2981275036701799 -0.0002631932760963
  0.1024426646879649  0.2135671469826012  0.9431075379574975
  0.2138786939331717  0.1026351005539878  0.0565952654670005
  0.1169618437090498  0.5540727977565901  0.9569711613997172
  0.2229309339535995  0.4481826093251881  0.0473616025286792
  0.1040415700984158  0.8884205320317368  0.9433034480074950
  0.2236126504417819  0.7799405445626375  0.0554114076053553
  0.4468153479343808  0.2215718190099271  0.9517272481415365
  0.5529792966268373  0.1157299025383249  0.0435937332076226
  0.4419152092348903  0.5563843832996181  0.9582203640481396
  0.5562807842543636  0.4422276617222577  0.0414925723920424
  0.4440520561057622  0.8960286377414665  0.9501679930029152
  0.5591875636256650  0.7789180132243188  0.0512498071099685
  0.7796388258575653  0.2234924161770826  0.9444215344112351
  0.8887344624595271  0.1046125032034630  0.0564730773429965
  0.7767883542695554  0.5577893941254134  0.9501255480644504
  0.8959773069033670  0.4434914554329328  0.0496591644198561
  0.7730284650949419  0.8820051680979621  0.9452950179081012
  0.8815190495062668  0.7729238726318484  0.0545994328925352
 
  0.00000000E+00  0.00000000E+00  0.00000000E+00
  0.00000000E+00  0.00000000E+00  0.00000000E+00
  0.00000000E+00  0.00000000E+00  0.00000000E+00
  0.00000000E+00  0.00000000E+00  0.00000000E+00
  0.00000000E+00  0.00000000E+00  0.00000000E+00
  0.00000000E+00  0.00000000E+00  0.00000000E+00
  0.00000000E+00  0.00000000E+00  0.00000000E+00
  0.00000000E+00  0.00000000E+00  0.00000000E+00
  0.00000000E+00  0.00000000E+00  0.00000000E+00
  0.00000000E+00  0.00000000E+00  0.00000000E+00
  0.00000000E+00  0.00000000E+00  0.00000000E+00
  0.00000000E+00  0.00000000E+00  0.00000000E+00
  0.00000000E+00  0.00000000E+00  0.00000000E+00
  0.00000000E+00  0.00000000E+00  0.00000000E+00
  0.00000000E+00  0.00000000E+00  0.00000000E+00
  0.00000000E+00  0.00000000E+00  0.00000000E+00
  0.00000000E+00  0.00000000E+00  0.00000000E+00
  0.00000000E+00  0.00000000E+00  0.00000000E+00
  0.00000000E+00  0.00000000E+00  0.00000000E+00
  0.00000000E+00  0.00000000E+00  0.00000000E+00
  0.00000000E+00  0.00000000E+00  0.00000000E+00
  0.00000000E+00  0.00000000E+00  0.00000000E+00
  0.00000000E+00  0.00000000E+00  0.00000000E+00
  0.00000000E+00  0.00000000E+00  0.00000000E+00
  0.00000000E+00  0.00000000E+00  0.00000000E+00
  0.00000000E+00  0.00000000E+00  0.00000000E+00
  0.00000000E+00  0.00000000E+00  0.00000000E+00
