crystal structure from VMoWS2 with Hexag
   1.00000000000000     
     8.3637955153994739    4.8116495068780747    0.0000000000000000
    -8.3789446979275599    4.8378504611997553    0.0000000000000000
     0.0000000000000000    0.0000000000000000   30.0000000000000000
   V    Mo   W    S 
     3     3     3    18
Direct
  0.0335470255527569  0.6852347819248302 -0.0004006784008201
  1.0338965882636610  0.3484789274324978 -0.0003466283373740
  0.3488320717779935  0.6746929647274847  0.0003207104407980
  0.3200656587386892  0.0156429425008717  0.0006723990397828
  0.0163556562281149  0.0083031908859522  0.0006293324990835
  0.3204249892341880  0.3044492048771591  0.0006025575778160
  0.6565497684504886 -0.0279697252444056 -0.0006756359312658
  0.6299476222806020  0.3130646229989340 -0.0007661016080980
  0.6565685922592206  0.6855851348016108 -0.0007051920403643
  0.1079458147143881  0.2227921583726938  0.9466265304545175
  0.2158550813930632  0.1080832824514911  0.0577600119522318
  0.1214342464304145  0.5607120588267903  0.9505413825017635
  0.2268308953520374  0.4476636307175462  0.0509392921986157
  0.1075742164530028  0.8849996022975569  0.9466332928027883
  0.2261852395415170  0.7787276936256133  0.0510066634486217
  0.4329862191039888  0.2162646470765997  0.9429209053607595
  0.5504975477980812  0.1059800181800290  0.0513925403331518
  0.4381714931919086  0.5512848630519063  0.9506734117828862
  0.5516565605196162  0.4446330377219587  0.0509093373246789
  0.4380126557874836  0.8870167106806311  0.9507063106904760
  0.5501856735414107  0.7752396564158119  0.0560908251221308
  0.7826621110937487  0.2240009316006904  0.9548064702661540
  0.8899104449617908  0.1190835082958104  0.0481383448003218
  0.7819988790033354  0.5581669159688321  0.9552217726606795
  0.8882268489933014  0.4438398446205652  0.0419987933848057
  0.7821354641999713  0.8912971587684902  0.9462011412663066
  0.8897570885722181  0.7709466898996179  0.0481021096095480
 
  0.00000000E+00  0.00000000E+00  0.00000000E+00
  0.00000000E+00  0.00000000E+00  0.00000000E+00
  0.00000000E+00  0.00000000E+00  0.00000000E+00
  0.00000000E+00  0.00000000E+00  0.00000000E+00
  0.00000000E+00  0.00000000E+00  0.00000000E+00
  0.00000000E+00  0.00000000E+00  0.00000000E+00
  0.00000000E+00  0.00000000E+00  0.00000000E+00
  0.00000000E+00  0.00000000E+00  0.00000000E+00
  0.00000000E+00  0.00000000E+00  0.00000000E+00
  0.00000000E+00  0.00000000E+00  0.00000000E+00
  0.00000000E+00  0.00000000E+00  0.00000000E+00
  0.00000000E+00  0.00000000E+00  0.00000000E+00
  0.00000000E+00  0.00000000E+00  0.00000000E+00
  0.00000000E+00  0.00000000E+00  0.00000000E+00
  0.00000000E+00  0.00000000E+00  0.00000000E+00
  0.00000000E+00  0.00000000E+00  0.00000000E+00
  0.00000000E+00  0.00000000E+00  0.00000000E+00
  0.00000000E+00  0.00000000E+00  0.00000000E+00
  0.00000000E+00  0.00000000E+00  0.00000000E+00
  0.00000000E+00  0.00000000E+00  0.00000000E+00
  0.00000000E+00  0.00000000E+00  0.00000000E+00
  0.00000000E+00  0.00000000E+00  0.00000000E+00
  0.00000000E+00  0.00000000E+00  0.00000000E+00
  0.00000000E+00  0.00000000E+00  0.00000000E+00
  0.00000000E+00  0.00000000E+00  0.00000000E+00
  0.00000000E+00  0.00000000E+00  0.00000000E+00
  0.00000000E+00  0.00000000E+00  0.00000000E+00
