crystal structure from VMoWS2 with Hexag
   1.00000000000000     
     8.3216022205467048    4.8274957447287861    0.0000000000000000
    -8.3104361366834976    4.8085986401181477    0.0000000000000000
     0.0000000000000000    0.0000000000000000   30.0000000000000000
   V    Mo   W    S 
     3     3     3    18
Direct
 -0.0046090146380030 -0.0104225175281869  0.0001984963020285
  0.3014040940232970 -0.0275702872122455  0.0009481187408898
  0.6998004570272724  0.3521081859906776 -0.0009949297417907
  1.0029626295380210  0.3501193339931884  0.0000835365501805
  0.2924560019683448  0.6445482926186843  0.0016615598047575
  0.0010210531886420  0.6570470340914841  0.0000954259949283
  0.2937889743320434  0.3229205687353416  0.0018101494831139
  0.7042616138655047  0.0196359342414888 -0.0017532859770042
  0.7073836297544552  0.6873082385835128 -0.0020332756139675
  0.0990490261617927  0.2150862056686685  0.9479465943299551
  0.2197336513028557  0.1045124911141607  0.0518161515968103
  0.1051432707440831  0.5539351021015860  0.9433663727125429
  0.2129041681189812  0.4429384881126220  0.0577856614496241
  0.1100195389630714  0.8890043900280679  0.9483916010199117
  0.2198613496584535  0.7783715931445493  0.0555058998535924
  0.4436680351152419  0.2207895445656634  0.9590861142999770
  0.5568052544371048  0.1130628607378348  0.0433444370605318
  0.4461551931181513  0.5569995970160591  0.9549128154960091
  0.5569059827408633  0.4457221103454867  0.0440327271653042
  0.4439451942531786  0.8877434662927157  0.9550551927664098
  0.5547574850695510  0.7770470057637966  0.0432669685923721
  0.7758760725730753  0.2279286383598458  0.9455329055668923
  0.9009162820206720  0.1133827202562405  0.0520206004579635
  0.7781281408103902  0.5512535702397385  0.9449747468131047
  0.8851598792364814  0.4441459936948010  0.0552014961055798
  0.7907231501104364  0.8948755413710756  0.9440942298116028
  0.8999933399430239  0.7857203511507174  0.0536495885586709
 
  0.00000000E+00  0.00000000E+00  0.00000000E+00
  0.00000000E+00  0.00000000E+00  0.00000000E+00
  0.00000000E+00  0.00000000E+00  0.00000000E+00
  0.00000000E+00  0.00000000E+00  0.00000000E+00
  0.00000000E+00  0.00000000E+00  0.00000000E+00
  0.00000000E+00  0.00000000E+00  0.00000000E+00
  0.00000000E+00  0.00000000E+00  0.00000000E+00
  0.00000000E+00  0.00000000E+00  0.00000000E+00
  0.00000000E+00  0.00000000E+00  0.00000000E+00
  0.00000000E+00  0.00000000E+00  0.00000000E+00
  0.00000000E+00  0.00000000E+00  0.00000000E+00
  0.00000000E+00  0.00000000E+00  0.00000000E+00
  0.00000000E+00  0.00000000E+00  0.00000000E+00
  0.00000000E+00  0.00000000E+00  0.00000000E+00
  0.00000000E+00  0.00000000E+00  0.00000000E+00
  0.00000000E+00  0.00000000E+00  0.00000000E+00
  0.00000000E+00  0.00000000E+00  0.00000000E+00
  0.00000000E+00  0.00000000E+00  0.00000000E+00
  0.00000000E+00  0.00000000E+00  0.00000000E+00
  0.00000000E+00  0.00000000E+00  0.00000000E+00
  0.00000000E+00  0.00000000E+00  0.00000000E+00
  0.00000000E+00  0.00000000E+00  0.00000000E+00
  0.00000000E+00  0.00000000E+00  0.00000000E+00
  0.00000000E+00  0.00000000E+00  0.00000000E+00
  0.00000000E+00  0.00000000E+00  0.00000000E+00
  0.00000000E+00  0.00000000E+00  0.00000000E+00
  0.00000000E+00  0.00000000E+00  0.00000000E+00
