crystal structure from VMoWS2 with Hexag
   1.00000000000000     
     8.3669376144511478    4.7964695416074070    0.0000000000000000
    -8.3998938692398379    4.8538084750266997    0.0000000000000000
     0.0000000000000000    0.0000000000000000   30.0000000000000000
   V    Mo   W    S 
     3     3     3    18
Direct
  0.6533062134958468  0.0222927305389431 -0.0014856225954968
  0.9971182905085654  0.3106282531045682 -0.0000894505298726
  0.3450166525255176  0.3648867634719685  0.0007709395135102
  0.6917484629701005  0.3603089177607714  0.0003292816600392
  0.0041869046675411 -0.0255916504215852  0.0003824132708448
 -0.0024716456500019  0.6802254332556726 -0.0001636418746768
  0.3118606119923656 -0.0333599176033910 -0.0003962734743822
  0.3102090307874963  0.6690877038599616 -0.0002396185060451
  0.6893351769323643  0.6548271885766502  0.0004956419895465
  0.1183785805671201  0.2227145286803191  0.9526187749920995
  0.2282945855610424  0.1161396527349987  0.0483676517691097
  0.1024282759921880  0.5450011985423273  0.9493558489796218
  0.2164826418627012  0.4405313158469119  0.0508601723756000
  0.1122442853320471  0.8855224615101543  0.9432811662771613
  0.2137212212206547  0.7725856009723406  0.0564393111441050
  0.4388283308631069  0.2209288529757533  0.9576578342180262
  0.5510978767728687  0.1144877296924237  0.0493738349974270
  0.4496534986328143  0.5634805803120388  0.9509408274720061
  0.5551140756317962  0.4464365352621658  0.0531582119335975
  0.4443550862840717  0.8896407638742321  0.9466217215759758
  0.5594910142123258  0.7816599407978809  0.0420952280388741
  0.7824838907376989  0.2238179735632947  0.9483396353690802
  0.8800742261318008  0.1039424515269165  0.0472482997824937
  0.7852462440057600  0.5592277760855773  0.9432271454871162
  0.8985000454038031  0.4440923795622445  0.0508058112999528
  0.7738633508222164  0.8905348838138337  0.9531562654273172
  0.8876475251731902  0.7741644051805698  0.0568484886069518
 
  0.00000000E+00  0.00000000E+00  0.00000000E+00
  0.00000000E+00  0.00000000E+00  0.00000000E+00
  0.00000000E+00  0.00000000E+00  0.00000000E+00
  0.00000000E+00  0.00000000E+00  0.00000000E+00
  0.00000000E+00  0.00000000E+00  0.00000000E+00
  0.00000000E+00  0.00000000E+00  0.00000000E+00
  0.00000000E+00  0.00000000E+00  0.00000000E+00
  0.00000000E+00  0.00000000E+00  0.00000000E+00
  0.00000000E+00  0.00000000E+00  0.00000000E+00
  0.00000000E+00  0.00000000E+00  0.00000000E+00
  0.00000000E+00  0.00000000E+00  0.00000000E+00
  0.00000000E+00  0.00000000E+00  0.00000000E+00
  0.00000000E+00  0.00000000E+00  0.00000000E+00
  0.00000000E+00  0.00000000E+00  0.00000000E+00
  0.00000000E+00  0.00000000E+00  0.00000000E+00
  0.00000000E+00  0.00000000E+00  0.00000000E+00
  0.00000000E+00  0.00000000E+00  0.00000000E+00
  0.00000000E+00  0.00000000E+00  0.00000000E+00
  0.00000000E+00  0.00000000E+00  0.00000000E+00
  0.00000000E+00  0.00000000E+00  0.00000000E+00
  0.00000000E+00  0.00000000E+00  0.00000000E+00
  0.00000000E+00  0.00000000E+00  0.00000000E+00
  0.00000000E+00  0.00000000E+00  0.00000000E+00
  0.00000000E+00  0.00000000E+00  0.00000000E+00
  0.00000000E+00  0.00000000E+00  0.00000000E+00
  0.00000000E+00  0.00000000E+00  0.00000000E+00
  0.00000000E+00  0.00000000E+00  0.00000000E+00
