crystal structure from VMoWS2 with Hexag
   1.00000000000000     
     8.3238151153867186    4.8334830879374220    0.0000000000000000
    -8.2958301728887065    4.7850850024813001    0.0000000000000000
     0.0000000000000000    0.0000000000000000   30.0000000000000000
   V    Mo   W    S 
     3     3     3    18
Direct
  0.7020484069314437  0.6890381103116916 -0.0013176581238275
  0.7017456471998350  0.3453942123914390 -0.0018909559742920
  0.3000190302003615  0.6496449606554174  0.0018833053424804
  0.9979865727966631  0.3301282026147537 -0.0001982627911878
  0.7048088270939593  0.0209925425144940 -0.0016867358676527
  0.0068170110738865  0.6519228803518607 -0.0004643701358256
  0.0013780262418357  0.0194646076344348  0.0000340871471899
  0.2923737233780072 -0.0231598225749052  0.0025780081269978
  0.2989408965115521  0.3189398518052630  0.0010517122900366
  0.1058534939283494  0.2220532657115250  0.9432942079738914
  0.2170458259184313  0.1106799232242929  0.0564606449081051
  0.1161080617228337  0.5545415223509608  0.9454736954121175
  0.2228063707316741  0.4491237491182239  0.0549286506975951
  0.0983559466782698  0.8818803719242732  0.9475420165023167
  0.2196121733964618  0.7689643680588586  0.0559912165693497
  0.4456373288403708  0.2202686808047192  0.9567763444698469
  0.5537604424999161  0.1128627679810180  0.0443690658099068
  0.4461901184166298  0.5599783886697376  0.9561575588369972
  0.5578487333006482  0.4462187497781789  0.0419564073246590
  0.4430267242794142  0.8866957342437740  0.9570944202407845
  0.5544267587778824  0.7753234705257841  0.0431358741930160
  0.7801026566330915  0.2282618161705957  0.9441807395882048
  0.8947605447655474  0.1168744581531444  0.0562351350047355
  0.7757172681639668  0.5519656010945314  0.9474309567975093
  0.8853460303750044  0.4407108460956010  0.0537426538562246
  0.7817494807569169  0.8889239164226627  0.9449738033242213
  0.8937483528240244  0.7805212774452434  0.0502673776765900
 
  0.00000000E+00  0.00000000E+00  0.00000000E+00
  0.00000000E+00  0.00000000E+00  0.00000000E+00
  0.00000000E+00  0.00000000E+00  0.00000000E+00
  0.00000000E+00  0.00000000E+00  0.00000000E+00
  0.00000000E+00  0.00000000E+00  0.00000000E+00
  0.00000000E+00  0.00000000E+00  0.00000000E+00
  0.00000000E+00  0.00000000E+00  0.00000000E+00
  0.00000000E+00  0.00000000E+00  0.00000000E+00
  0.00000000E+00  0.00000000E+00  0.00000000E+00
  0.00000000E+00  0.00000000E+00  0.00000000E+00
  0.00000000E+00  0.00000000E+00  0.00000000E+00
  0.00000000E+00  0.00000000E+00  0.00000000E+00
  0.00000000E+00  0.00000000E+00  0.00000000E+00
  0.00000000E+00  0.00000000E+00  0.00000000E+00
  0.00000000E+00  0.00000000E+00  0.00000000E+00
  0.00000000E+00  0.00000000E+00  0.00000000E+00
  0.00000000E+00  0.00000000E+00  0.00000000E+00
  0.00000000E+00  0.00000000E+00  0.00000000E+00
  0.00000000E+00  0.00000000E+00  0.00000000E+00
  0.00000000E+00  0.00000000E+00  0.00000000E+00
  0.00000000E+00  0.00000000E+00  0.00000000E+00
  0.00000000E+00  0.00000000E+00  0.00000000E+00
  0.00000000E+00  0.00000000E+00  0.00000000E+00
  0.00000000E+00  0.00000000E+00  0.00000000E+00
  0.00000000E+00  0.00000000E+00  0.00000000E+00
  0.00000000E+00  0.00000000E+00  0.00000000E+00
  0.00000000E+00  0.00000000E+00  0.00000000E+00
