crystal structure from VMoWS2 with Hexag
   1.00000000000000     
     8.3446256672379366    4.7925239073942194    0.0000000000000000
    -8.3337945327564746    4.7736456278464567    0.0000000000000000
     0.0000000000000000    0.0000000000000000   30.0000000000000000
   V    Mo   W    S 
     3     3     3    18
Direct
  0.3140928497478130  0.0172140445578395 -0.0023718048547862
  0.6466333773999707  0.3450414654500745 -0.0015199773599405
  1.0243374052633480  0.3239573854391575  0.0020658799459036
  0.0144274937221598  0.0123152308992787  0.0000202314714207
  0.3294655821171374  0.3359120866386741 -0.0002294360788970
  0.3543635782255385  0.6485035957820915  0.0021941287152505
 -0.0153642224355190  0.6900758856917064 -0.0021218600359510
  0.6776054491312407 -0.0270127240283303  0.0020920862273527
  0.6500503356478712  0.6566567873916564 -0.0002377263018343
  0.1103039285111223  0.2268981867395069  0.9458385364777863
  0.2263673030369165  0.1120627113160033  0.0536062287960402
  0.1101902696675141  0.5549523379033393  0.9559306494376579
  0.2195569375663058  0.4394424017673559  0.0562160942557167
  0.1158463970891013  0.8979593634541394  0.9438316864009777
  0.2246884292973000  0.7815867687922931  0.0433078820319894
  0.4438672899025173  0.2207170061357094  0.9463291296477937
  0.5517636718497871  0.1089741467615926  0.0432167322199338
  0.4453766396074089  0.5502196361435668  0.9439206947145533
  0.5551863617944707  0.4413682472927738  0.0536080140561816
  0.4426373216214505  0.8896231998170047  0.9556771333976424
  0.5573918733106996  0.7703932386962200  0.0581362797290361
  0.7792617003030746  0.2228101571650268  0.9585433694142080
  0.8936742700709762  0.1172650782053460  0.0541582070158394
  0.7716562142831983  0.5501327671483898  0.9457107018398115
  0.8887030121340745  0.4444037050553319  0.0424287009731182
  0.7812833116692232  0.8832462047025127  0.9467335065789084
  0.8848476729022834  0.7834955385593090  0.0529148304842758
 
  0.00000000E+00  0.00000000E+00  0.00000000E+00
  0.00000000E+00  0.00000000E+00  0.00000000E+00
  0.00000000E+00  0.00000000E+00  0.00000000E+00
  0.00000000E+00  0.00000000E+00  0.00000000E+00
  0.00000000E+00  0.00000000E+00  0.00000000E+00
  0.00000000E+00  0.00000000E+00  0.00000000E+00
  0.00000000E+00  0.00000000E+00  0.00000000E+00
  0.00000000E+00  0.00000000E+00  0.00000000E+00
  0.00000000E+00  0.00000000E+00  0.00000000E+00
  0.00000000E+00  0.00000000E+00  0.00000000E+00
  0.00000000E+00  0.00000000E+00  0.00000000E+00
  0.00000000E+00  0.00000000E+00  0.00000000E+00
  0.00000000E+00  0.00000000E+00  0.00000000E+00
  0.00000000E+00  0.00000000E+00  0.00000000E+00
  0.00000000E+00  0.00000000E+00  0.00000000E+00
  0.00000000E+00  0.00000000E+00  0.00000000E+00
  0.00000000E+00  0.00000000E+00  0.00000000E+00
  0.00000000E+00  0.00000000E+00  0.00000000E+00
  0.00000000E+00  0.00000000E+00  0.00000000E+00
  0.00000000E+00  0.00000000E+00  0.00000000E+00
  0.00000000E+00  0.00000000E+00  0.00000000E+00
  0.00000000E+00  0.00000000E+00  0.00000000E+00
  0.00000000E+00  0.00000000E+00  0.00000000E+00
  0.00000000E+00  0.00000000E+00  0.00000000E+00
  0.00000000E+00  0.00000000E+00  0.00000000E+00
  0.00000000E+00  0.00000000E+00  0.00000000E+00
  0.00000000E+00  0.00000000E+00  0.00000000E+00
