crystal structure from VMoWS2 with Hexag
   1.00000000000000     
     8.3977541470947088    4.8190589683448106    0.0000000000000000
    -8.3929445328886345    4.8105971288330522    0.0000000000000000
     0.0000000000000000    0.0000000000000000   30.0000000000000000
   V    Mo   W    S 
     3     3     3    18
Direct
  0.0173381771049334  0.6764320230242171  0.0003027826917123
  0.6857205637433141  0.6434590553231145  0.0018236672713210
  0.3148557645544694  0.3591324712700628 -0.0027176074567410
  0.3408273633100448 -0.0142225280600639  0.0006763815020621
  0.3167089963145078  0.6780454952802656 -0.0009047283681881
  0.6683180272983240  0.3069547243879584  0.0018516188821266
  0.0193763355723700 -0.0219596291043731  0.0015569773864303
  1.0032549347001785  0.3670026841202200 -0.0010209566720809
  0.6372245638311004  0.0015537483826564 -0.0015069604270274
  0.1065452329620320  0.2226359042667432  0.9516654713763061
  0.2318738246102204  0.1237250214764676  0.0490628190876331
  0.1094545242970408  0.5651617958915833  0.9435858833690172
  0.2184958606849556  0.4523654194243162  0.0518828341305816
  0.1154585892578309  0.8811065121463110  0.9459893245675066
  0.2149517708263733  0.7778037787266792  0.0553835966320796
  0.4377341092589127  0.2293094614350977  0.9556774252107978
  0.5499138595558055  0.1016951341559073  0.0573988427156598
  0.4537126394797904  0.5650809567478221  0.9521203423944530
  0.5459779651805736  0.4382842316488450  0.0484193578718928
  0.4428917759146222  0.8886485362645319  0.9424144627196854
  0.5585697113950717  0.7738319283585093  0.0456732455028511
  0.7794284723437214  0.2189944939737476  0.9458562562970498
  0.8907746673416403  0.1113319851180668  0.0413529342563412
  0.7826928656583901  0.5489370721520600  0.9511228555089424
  0.8883191275092365  0.4528121143602516  0.0528446472382957
  0.7756026174837731  0.8816134390548845  0.9567136865593225
  0.8921921132477553  0.7684786236516986  0.0527747389519497
 
  0.00000000E+00  0.00000000E+00  0.00000000E+00
  0.00000000E+00  0.00000000E+00  0.00000000E+00
  0.00000000E+00  0.00000000E+00  0.00000000E+00
  0.00000000E+00  0.00000000E+00  0.00000000E+00
  0.00000000E+00  0.00000000E+00  0.00000000E+00
  0.00000000E+00  0.00000000E+00  0.00000000E+00
  0.00000000E+00  0.00000000E+00  0.00000000E+00
  0.00000000E+00  0.00000000E+00  0.00000000E+00
  0.00000000E+00  0.00000000E+00  0.00000000E+00
  0.00000000E+00  0.00000000E+00  0.00000000E+00
  0.00000000E+00  0.00000000E+00  0.00000000E+00
  0.00000000E+00  0.00000000E+00  0.00000000E+00
  0.00000000E+00  0.00000000E+00  0.00000000E+00
  0.00000000E+00  0.00000000E+00  0.00000000E+00
  0.00000000E+00  0.00000000E+00  0.00000000E+00
  0.00000000E+00  0.00000000E+00  0.00000000E+00
  0.00000000E+00  0.00000000E+00  0.00000000E+00
  0.00000000E+00  0.00000000E+00  0.00000000E+00
  0.00000000E+00  0.00000000E+00  0.00000000E+00
  0.00000000E+00  0.00000000E+00  0.00000000E+00
  0.00000000E+00  0.00000000E+00  0.00000000E+00
  0.00000000E+00  0.00000000E+00  0.00000000E+00
  0.00000000E+00  0.00000000E+00  0.00000000E+00
  0.00000000E+00  0.00000000E+00  0.00000000E+00
  0.00000000E+00  0.00000000E+00  0.00000000E+00
  0.00000000E+00  0.00000000E+00  0.00000000E+00
  0.00000000E+00  0.00000000E+00  0.00000000E+00
