crystal structure from VMoWS2 with Hexag
   1.00000000000000     
     8.3608844626547594    4.7919368141614349    0.0000000000000000
    -8.3654844681268745    4.7999168637147349    0.0000000000000000
     0.0000000000000000    0.0000000000000000   30.0000000000000000
   V    Mo   W    S 
     3     3     3    18
Direct
  0.0141407200519235  0.6455338436980702  0.0016433314923316
  0.3432287551334611 -0.0216141896861840  0.0009288551004852
  0.6856099842983485  0.3147206890460388  0.0016628551923624
  1.0218547638895417  0.3484789166848122  0.0006079408590107
  0.3355620147618206  0.6598009927263094  0.0004402198808379
  0.6494149211966515  0.6865311317488819 -0.0020410453830970
 -0.0311386091225563  0.0075939226670814 -0.0021590744242610
  0.3303510978111749  0.3638402189630054 -0.0010196009949417
  0.6535092896338501 -0.0213184248585014  0.0001151177831796
  0.1153655026994624  0.2251031104198478  0.9454610810675537
  0.2208990563729726  0.1105588163122432  0.0414037919639709
  0.1121034747247593  0.5578445133626123  0.9466037175209290
  0.2258523514258944  0.4493845941678219  0.0570707714445949
  0.1087481018004831  0.8856826162376669  0.9563701520232838
  0.2199094829082150  0.7775942016489777  0.0528590715504626
  0.4504406566991144  0.2253403702952756  0.9573648333012829
  0.5515420946923439  0.1083110205368679  0.0522400336664120
  0.4439437940952757  0.5593919901188616  0.9423062750550050
  0.5615693409134010  0.4462302227422773  0.0455852840836094
  0.4404779129855306  0.8877630540073654  0.9462403232971774
  0.5496429652224921  0.7784050672594430  0.0563515306387584
  0.7817058437453818  0.2203622476122810  0.9500990475901542
  0.8808268329133542  0.1143640503370632  0.0527626052029419
  0.7800096702869557  0.5547424630072542  0.9575126701249062
  0.8921857214311920  0.4458310691004718  0.0535410202327306
  0.7702858098282450  0.8909203192969953  0.9416691023587722
  0.8901729030376934  0.7768176260247108  0.0443799885715594
 
  0.00000000E+00  0.00000000E+00  0.00000000E+00
  0.00000000E+00  0.00000000E+00  0.00000000E+00
  0.00000000E+00  0.00000000E+00  0.00000000E+00
  0.00000000E+00  0.00000000E+00  0.00000000E+00
  0.00000000E+00  0.00000000E+00  0.00000000E+00
  0.00000000E+00  0.00000000E+00  0.00000000E+00
  0.00000000E+00  0.00000000E+00  0.00000000E+00
  0.00000000E+00  0.00000000E+00  0.00000000E+00
  0.00000000E+00  0.00000000E+00  0.00000000E+00
  0.00000000E+00  0.00000000E+00  0.00000000E+00
  0.00000000E+00  0.00000000E+00  0.00000000E+00
  0.00000000E+00  0.00000000E+00  0.00000000E+00
  0.00000000E+00  0.00000000E+00  0.00000000E+00
  0.00000000E+00  0.00000000E+00  0.00000000E+00
  0.00000000E+00  0.00000000E+00  0.00000000E+00
  0.00000000E+00  0.00000000E+00  0.00000000E+00
  0.00000000E+00  0.00000000E+00  0.00000000E+00
  0.00000000E+00  0.00000000E+00  0.00000000E+00
  0.00000000E+00  0.00000000E+00  0.00000000E+00
  0.00000000E+00  0.00000000E+00  0.00000000E+00
  0.00000000E+00  0.00000000E+00  0.00000000E+00
  0.00000000E+00  0.00000000E+00  0.00000000E+00
  0.00000000E+00  0.00000000E+00  0.00000000E+00
  0.00000000E+00  0.00000000E+00  0.00000000E+00
  0.00000000E+00  0.00000000E+00  0.00000000E+00
  0.00000000E+00  0.00000000E+00  0.00000000E+00
  0.00000000E+00  0.00000000E+00  0.00000000E+00
