crystal structure from VMoWS2 with Hexag
   1.00000000000000     
     8.3465664246038376    4.7928297309942449    0.0000000000000000
    -8.3419238014123067    4.7847867092861120    0.0000000000000000
     0.0000000000000000    0.0000000000000000   30.0000000000000000
   V    Mo   W    S 
     3     3     3    18
Direct
  0.6437641412021317  0.3452526095739908 -0.0018586728638289
  0.3496305001638597  0.6494008482584632  0.0019903414422960
 -0.0133069709930781  0.6893265413835523 -0.0015579054718035
  0.3322420787665814  0.3301791519270208 -0.0001892464320863
  0.3158631769436883  0.0209153545199891 -0.0017411479182817
  0.6453352048715035  0.6518289876942192 -0.0004129489175925
  0.0178940716005764  0.0197214981805868 -0.0000065749565052
  1.0201492387450561  0.3193027177658662  0.0010590138025793
  0.6840407727739259 -0.0236115912003857  0.0026892480048001
  0.1163387594656276  0.2224926083419347  0.9432919160252651
  0.2218437316033881  0.1167382283240425  0.0561834522511949
  0.1139602633103682  0.5602340002738329  0.9561554150027711
  0.2262366117411787  0.4488343802650399  0.0550266169912925
  0.1071143254233499  0.8895404384683188  0.9448070990922985
  0.2204800496187813  0.7752138246409284  0.0430262768453075
  0.4483616446629475  0.2282906567214815  0.9441949777302429
  0.5586394769833013  0.1125090413818603  0.0443996427310589
  0.4386444726932395  0.5546360094264747  0.9455350453414578
  0.5554380678803310  0.4404667061477912  0.0537744068679727
  0.4434853329543286  0.8864081843179501  0.9571566621022861
  0.5492738424388484  0.7685246215800108  0.0561329657746142
  0.7745139538994830  0.2199474510204849  0.9568622409546167
  0.8934166541931010  0.1109381817097374  0.0564701656302535
  0.7760729732793483  0.5517319199889402  0.9473186152411912
  0.8886033125050856  0.4467467475720645  0.0419043201051670
  0.7832436690172092  0.8819213404216049  0.9475775783490579
  0.8869350976928200  0.7807239947717785  0.0502103954743582
 
  0.00000000E+00  0.00000000E+00  0.00000000E+00
  0.00000000E+00  0.00000000E+00  0.00000000E+00
  0.00000000E+00  0.00000000E+00  0.00000000E+00
  0.00000000E+00  0.00000000E+00  0.00000000E+00
  0.00000000E+00  0.00000000E+00  0.00000000E+00
  0.00000000E+00  0.00000000E+00  0.00000000E+00
  0.00000000E+00  0.00000000E+00  0.00000000E+00
  0.00000000E+00  0.00000000E+00  0.00000000E+00
  0.00000000E+00  0.00000000E+00  0.00000000E+00
  0.00000000E+00  0.00000000E+00  0.00000000E+00
  0.00000000E+00  0.00000000E+00  0.00000000E+00
  0.00000000E+00  0.00000000E+00  0.00000000E+00
  0.00000000E+00  0.00000000E+00  0.00000000E+00
  0.00000000E+00  0.00000000E+00  0.00000000E+00
  0.00000000E+00  0.00000000E+00  0.00000000E+00
  0.00000000E+00  0.00000000E+00  0.00000000E+00
  0.00000000E+00  0.00000000E+00  0.00000000E+00
  0.00000000E+00  0.00000000E+00  0.00000000E+00
  0.00000000E+00  0.00000000E+00  0.00000000E+00
  0.00000000E+00  0.00000000E+00  0.00000000E+00
  0.00000000E+00  0.00000000E+00  0.00000000E+00
  0.00000000E+00  0.00000000E+00  0.00000000E+00
  0.00000000E+00  0.00000000E+00  0.00000000E+00
  0.00000000E+00  0.00000000E+00  0.00000000E+00
  0.00000000E+00  0.00000000E+00  0.00000000E+00
  0.00000000E+00  0.00000000E+00  0.00000000E+00
  0.00000000E+00  0.00000000E+00  0.00000000E+00
