crystal structure from VMoWS2 with Hexag
   1.00000000000000     
     8.3155342828333918    4.8312760227084466    0.0000000000000000
    -8.2937996800591645    4.7937243992075000    0.0000000000000000
     0.0000000000000000    0.0000000000000000   30.0000000000000000
   V    Mo   W    S 
     3     3     3    18
Direct
  0.6320140729701087  0.3106452304484120  0.0018913004364039
  0.6300900355355235  0.6525731598035043  0.0020452325876190
  0.0336538196753490  0.0164169019811190 -0.0021771076569048
  0.6281688900926629 -0.0176559446345183  0.0018484648888043
  0.3274448834471900  0.3123733954479360  0.0003140511491119
  0.3355857923842825 -0.0008874491911321  0.0001341754210756
  1.0410532382321753  0.3507574616993618 -0.0029274373639054
  0.0339294520374708  0.6868389846232151 -0.0011640973914536
  0.3310297567803352  0.6844273886270971  0.0000949549578670
  0.1146059932223085  0.2161596691716924  0.9436804459825516
  0.2171125895856939  0.1054125468340016  0.0543089021250541
  0.1157953077491252  0.5603048891585006  0.9433901211091351
  0.2341034386049564  0.4495507298136898  0.0523325861333934
  0.1109860796837980  0.8930211968208778  0.9448485770289502
  0.2265494713327693  0.7831961892867749  0.0566706065539461
  0.4488957889236615  0.2223099641625044  0.9461629578396730
  0.5533911645065692  0.1152046663121369  0.0558251508903717
  0.4400549677283654  0.5540646492597520  0.9499564884138973
  0.5572962569215816  0.4421335980223750  0.0529566660756503
  0.4385468233860199  0.8882647736092643  0.9438785003378569
  0.5500781035518756  0.7737928436635787  0.0554381552289304
  0.7793163373252765  0.2250298564345317  0.9555989245465193
  0.8906278639329868  0.1103312098079595  0.0427285798076978
  0.7747710422428972  0.5553794674507082  0.9581686592966256
  0.8879559548572816  0.4411508822854782  0.0430289378185045
  0.7782281996043949  0.8865740389520627  0.9571921375053806
  0.8869291291223282  0.7808441536267040  0.0437739654772267
 
  0.00000000E+00  0.00000000E+00  0.00000000E+00
  0.00000000E+00  0.00000000E+00  0.00000000E+00
  0.00000000E+00  0.00000000E+00  0.00000000E+00
  0.00000000E+00  0.00000000E+00  0.00000000E+00
  0.00000000E+00  0.00000000E+00  0.00000000E+00
  0.00000000E+00  0.00000000E+00  0.00000000E+00
  0.00000000E+00  0.00000000E+00  0.00000000E+00
  0.00000000E+00  0.00000000E+00  0.00000000E+00
  0.00000000E+00  0.00000000E+00  0.00000000E+00
  0.00000000E+00  0.00000000E+00  0.00000000E+00
  0.00000000E+00  0.00000000E+00  0.00000000E+00
  0.00000000E+00  0.00000000E+00  0.00000000E+00
  0.00000000E+00  0.00000000E+00  0.00000000E+00
  0.00000000E+00  0.00000000E+00  0.00000000E+00
  0.00000000E+00  0.00000000E+00  0.00000000E+00
  0.00000000E+00  0.00000000E+00  0.00000000E+00
  0.00000000E+00  0.00000000E+00  0.00000000E+00
  0.00000000E+00  0.00000000E+00  0.00000000E+00
  0.00000000E+00  0.00000000E+00  0.00000000E+00
  0.00000000E+00  0.00000000E+00  0.00000000E+00
  0.00000000E+00  0.00000000E+00  0.00000000E+00
  0.00000000E+00  0.00000000E+00  0.00000000E+00
  0.00000000E+00  0.00000000E+00  0.00000000E+00
  0.00000000E+00  0.00000000E+00  0.00000000E+00
  0.00000000E+00  0.00000000E+00  0.00000000E+00
  0.00000000E+00  0.00000000E+00  0.00000000E+00
  0.00000000E+00  0.00000000E+00  0.00000000E+00
