crystal structure from VMoWS2 with Hexag
   1.00000000000000     
     8.3318134186139918    4.7859746019678013    0.0000000000000000
    -8.3305684596307668    4.7838041274312246    0.0000000000000000
     0.0000000000000000    0.0000000000000000   30.0000000000000000
   V    Mo   W    S 
     3     3     3    18
Direct
  0.6503702130091307  0.0160523400843209 -0.0018099648910417
  0.0177513777653935 -0.0167216209151970  0.0019681850653924
  0.6833552414463051  0.6487193470626713  0.0019503578072959
  0.6603370953213196  0.3273005884123605  0.0001668233159853
  0.3379638119529983  0.0048915970518006  0.0001672095801394
  0.0057389231959684  0.6633400557891359  0.0003544355248191
  0.9824857298230885  0.3550210934840593 -0.0024210671102006
  0.3531330012182097  0.3131958523933466  0.0021139962188315
  0.3117858735197653  0.6840696351618999 -0.0023952740564516
  0.1100643691323544  0.2204868222047226  0.9563811736241119
  0.2204355101614203  0.1063853965317286  0.0556350857604856
  0.1071844185101949  0.5596708686361880  0.9418712864475878
  0.2226133560089781  0.4438590219046687  0.0443429330456634
  0.1099232061165296  0.8902865906216669  0.9474230558823091
  0.2209212381577743  0.7813277985583778  0.0550147530704042
  0.4467408788088617  0.2195133090091702  0.9444962705699230
  0.5577266793907818  0.1085976096366954  0.0540165463371045
  0.4460716864017588  0.5563949992679873  0.9564062181337030
  0.5600316257556649  0.4458703565615691  0.0556287322118556
  0.4478939208819837  0.8933884430064708  0.9447455169588711
  0.5565825323628925  0.7789168170770396  0.0427212040851598
  0.7730561276111585  0.2186947104657136  0.9447629635983853
  0.8876132067703965  0.1100884555673970  0.0426756348863080
  0.7764288432671902  0.5564822435580344  0.9476187228675457
  0.8851511362860263  0.4460210762683039  0.0547884125644154
  0.7784734143075180  0.8880189795405080  0.9580887684203729
  0.8883810362533169  0.7783420665369325  0.0532879192810166
 
  0.00000000E+00  0.00000000E+00  0.00000000E+00
  0.00000000E+00  0.00000000E+00  0.00000000E+00
  0.00000000E+00  0.00000000E+00  0.00000000E+00
  0.00000000E+00  0.00000000E+00  0.00000000E+00
  0.00000000E+00  0.00000000E+00  0.00000000E+00
  0.00000000E+00  0.00000000E+00  0.00000000E+00
  0.00000000E+00  0.00000000E+00  0.00000000E+00
  0.00000000E+00  0.00000000E+00  0.00000000E+00
  0.00000000E+00  0.00000000E+00  0.00000000E+00
  0.00000000E+00  0.00000000E+00  0.00000000E+00
  0.00000000E+00  0.00000000E+00  0.00000000E+00
  0.00000000E+00  0.00000000E+00  0.00000000E+00
  0.00000000E+00  0.00000000E+00  0.00000000E+00
  0.00000000E+00  0.00000000E+00  0.00000000E+00
  0.00000000E+00  0.00000000E+00  0.00000000E+00
  0.00000000E+00  0.00000000E+00  0.00000000E+00
  0.00000000E+00  0.00000000E+00  0.00000000E+00
  0.00000000E+00  0.00000000E+00  0.00000000E+00
  0.00000000E+00  0.00000000E+00  0.00000000E+00
  0.00000000E+00  0.00000000E+00  0.00000000E+00
  0.00000000E+00  0.00000000E+00  0.00000000E+00
  0.00000000E+00  0.00000000E+00  0.00000000E+00
  0.00000000E+00  0.00000000E+00  0.00000000E+00
  0.00000000E+00  0.00000000E+00  0.00000000E+00
  0.00000000E+00  0.00000000E+00  0.00000000E+00
  0.00000000E+00  0.00000000E+00  0.00000000E+00
  0.00000000E+00  0.00000000E+00  0.00000000E+00
