crystal structure from VMoWS2 with Hexag
   1.00000000000000     
     8.3704035741797966    4.8331404643098068    0.0000000000000000
    -8.3705836326139593    4.8334532294116412    0.0000000000000000
     0.0000000000000000    0.0000000000000000   30.0000000000000000
   V    Mo   W    S 
     3     3     3    18
Direct
  0.6702186353431066  0.6688326522478965  0.0016693958830627
  0.3310277309869274  0.3295837931258797  0.0016673800575973
  0.3315054348162467  0.6684415750384980  0.0016237194615926
  0.9774602729576376  0.3220082106486443 -0.0003156227400496
  0.6780255437620532  0.3218448323692013 -0.0003017971434293
  0.6778436779602026  0.0223832727439985 -0.0003170883149141
 -0.0195157603391175  0.0193954976540113 -0.0009953165285078
 -0.0195022695794251  0.6276750709627500 -0.0010038119137902
  0.3721809204197781  0.0193707877843841 -0.0010051630056148
  0.1141602978054624  0.2282184306377092  0.9482611597237047
  0.2220203374817185  0.1108205206112772  0.0476890070275959
  0.1141655535883320  0.5524901943989088  0.9482892095586705
  0.2234030318993107  0.4450599089598035  0.0474918603698043
  0.1110481522051988  0.8888169159286853  0.9592239104200240
  0.2220821174091646  0.7777930329128615  0.0476892425314612
  0.4474361591139256  0.2282642160675948  0.9483297239567625
  0.5602276868642612  0.1133972664335932  0.0563054101990114
  0.4443651168552527  0.5554828094197719  0.9531161034517195
  0.5548887629041366  0.4449492017907933  0.0473947368734532
  0.4473681527958457  0.8857160816563863  0.9482883019523420
  0.5548031073414538  0.7764786979138710  0.0475076100072247
  0.7777496737158852  0.2221123677609678  0.9425048089461167
  0.8864409003665438  0.1134298069172653  0.0563004112234209
  0.7716123549721711  0.5524267819885808  0.9483357399793850
  0.8864733619095313  0.4396395932546944  0.0563037275089532
  0.7716791423060422  0.8857333401677504  0.9482682916688466
  0.8890463575753350  0.7778495940817950  0.0476789480455476
 
  0.00000000E+00  0.00000000E+00  0.00000000E+00
  0.00000000E+00  0.00000000E+00  0.00000000E+00
  0.00000000E+00  0.00000000E+00  0.00000000E+00
  0.00000000E+00  0.00000000E+00  0.00000000E+00
  0.00000000E+00  0.00000000E+00  0.00000000E+00
  0.00000000E+00  0.00000000E+00  0.00000000E+00
  0.00000000E+00  0.00000000E+00  0.00000000E+00
  0.00000000E+00  0.00000000E+00  0.00000000E+00
  0.00000000E+00  0.00000000E+00  0.00000000E+00
  0.00000000E+00  0.00000000E+00  0.00000000E+00
  0.00000000E+00  0.00000000E+00  0.00000000E+00
  0.00000000E+00  0.00000000E+00  0.00000000E+00
  0.00000000E+00  0.00000000E+00  0.00000000E+00
  0.00000000E+00  0.00000000E+00  0.00000000E+00
  0.00000000E+00  0.00000000E+00  0.00000000E+00
  0.00000000E+00  0.00000000E+00  0.00000000E+00
  0.00000000E+00  0.00000000E+00  0.00000000E+00
  0.00000000E+00  0.00000000E+00  0.00000000E+00
  0.00000000E+00  0.00000000E+00  0.00000000E+00
  0.00000000E+00  0.00000000E+00  0.00000000E+00
  0.00000000E+00  0.00000000E+00  0.00000000E+00
  0.00000000E+00  0.00000000E+00  0.00000000E+00
  0.00000000E+00  0.00000000E+00  0.00000000E+00
  0.00000000E+00  0.00000000E+00  0.00000000E+00
  0.00000000E+00  0.00000000E+00  0.00000000E+00
  0.00000000E+00  0.00000000E+00  0.00000000E+00
  0.00000000E+00  0.00000000E+00  0.00000000E+00
