crystal structure from VMoWS2 with Hexag
   1.00000000000000     
     8.2531604829397072    4.7652775864640358    0.0000000000000000
    -8.2531579936000856    4.7652739201283447    0.0000000000000000
     0.0000000000000000    0.0000000000000000   30.0000000000000000
   V    Mo   W    S 
     3     3     3    18
Direct
  0.3333602566654019  0.0000417977830754 -0.0000038159221084
  0.6667086109821848  0.6667060303032514  0.0000002505926507
  1.0000409624429623  0.3333649891032349  0.0000034715714207
  0.3332496842299159  0.3333390246545057  0.0000004247057449
 -0.0000451463678726  0.6665669962785878 -0.0000000727729324
  0.6667522736641974  0.0000491024443965 -0.0000005786553179
 -0.0002143664883607 -0.0001310597033981  0.0000001657042278
  0.3330809876024933  0.6663813636874877 -0.0000005618369704
  0.6665596909644157  0.3331753419587680  0.0000002838252760
  0.1070754693807485  0.2242337551443000  0.9483854408412177
  0.2242260224448852  0.1070905607498415  0.0515999300766475
  0.1089126225765033  0.5494159951644598  0.9483645772386001
  0.2160818152414481  0.4422470282058453  0.0516409229394314
  0.1170935822532546  0.8927873096202200  0.9484017951446988
  0.2261256317421357  0.7837675496373658  0.0516031926677153
  0.4422605557886359  0.2161132312380970  0.9483866928827733
  0.5494409706625639  0.1089248754110534  0.0516170611896151
  0.4504252416218903  0.5594562006735194  0.9483789521859994
  0.5594487889681352  0.4504175719325384  0.0516099108951019
  0.4404281852761762  0.8908896570983711  0.9484121487372897
  0.5575472235962700  0.7737639417911856  0.0516021144957365
  0.7837918512697213  0.2261396432947199  0.9483823133244244
  0.8928087333415524  0.1171253644831780  0.0516238381808291
  0.7737586203266250  0.5575523662146784  0.9483834831403697
  0.8909012346679538  0.4404076454860603  0.0516176181673783
  0.7756038333008674  0.8827846804004739  0.9483631202369233
  0.8827911172822740  0.7756034904217559  0.0516272196432477
 
  0.00000000E+00  0.00000000E+00  0.00000000E+00
  0.00000000E+00  0.00000000E+00  0.00000000E+00
  0.00000000E+00  0.00000000E+00  0.00000000E+00
  0.00000000E+00  0.00000000E+00  0.00000000E+00
  0.00000000E+00  0.00000000E+00  0.00000000E+00
  0.00000000E+00  0.00000000E+00  0.00000000E+00
  0.00000000E+00  0.00000000E+00  0.00000000E+00
  0.00000000E+00  0.00000000E+00  0.00000000E+00
  0.00000000E+00  0.00000000E+00  0.00000000E+00
  0.00000000E+00  0.00000000E+00  0.00000000E+00
  0.00000000E+00  0.00000000E+00  0.00000000E+00
  0.00000000E+00  0.00000000E+00  0.00000000E+00
  0.00000000E+00  0.00000000E+00  0.00000000E+00
  0.00000000E+00  0.00000000E+00  0.00000000E+00
  0.00000000E+00  0.00000000E+00  0.00000000E+00
  0.00000000E+00  0.00000000E+00  0.00000000E+00
  0.00000000E+00  0.00000000E+00  0.00000000E+00
  0.00000000E+00  0.00000000E+00  0.00000000E+00
  0.00000000E+00  0.00000000E+00  0.00000000E+00
  0.00000000E+00  0.00000000E+00  0.00000000E+00
  0.00000000E+00  0.00000000E+00  0.00000000E+00
  0.00000000E+00  0.00000000E+00  0.00000000E+00
  0.00000000E+00  0.00000000E+00  0.00000000E+00
  0.00000000E+00  0.00000000E+00  0.00000000E+00
  0.00000000E+00  0.00000000E+00  0.00000000E+00
  0.00000000E+00  0.00000000E+00  0.00000000E+00
  0.00000000E+00  0.00000000E+00  0.00000000E+00
