crystal structure from VMoWS2 with Hexag
   1.00000000000000     
     8.3104401776399701    4.8272919497394904    0.0000000000000000
    -8.2854442889146664    4.7840228406525167    0.0000000000000000
     0.0000000000000000    0.0000000000000000   30.0000000000000000
   V    Mo   W    S 
     3     3     3    18
Direct
  0.3689044534528504  0.3510688271505132 -0.0017660833413261
  0.3689646347663399  0.0177879008213100 -0.0017739222150519
  0.3689120462565677  0.6844671684311290 -0.0017702198676868
  0.6759767520918638  0.6711834464083772 -0.0007482762930559
  0.6759341354982876  0.3379823413382979 -0.0007492716662860
  0.6759167637400864  0.0046427343054842 -0.0007474089000702
 -0.0381048350237014 -0.0191008305439641  0.0023975203886051
  0.9619085230708651  0.3142642245005927  0.0023968481393548
 -0.0380748722622899  0.6475969256530187  0.0023894575993853
  0.1123560752149682  0.2228069377261624  0.9565066506061146
  0.2240993178601391  0.1119893688405875  0.0428394396001570
  0.1123855978210836  0.5561531652117477  0.9565031307103459
  0.2240871356790612  0.4453515341190445  0.0428404893655217
  0.1124137118119094  0.8895106271099698  0.9565108170231309
  0.2241164197930728  0.7787099026933081  0.0428413337253562
  0.4441087274966277  0.2220254547353758  0.9466456999106031
  0.5543264079279027  0.1104863009220159  0.0523446627450552
  0.4441066100425387  0.5553223786675463  0.9466478799938500
  0.5542990091536023  0.4437878672913746  0.0523453626976405
  0.4441260741408484  0.8887112653659142  0.9466324744487270
  0.5543493288366480  0.7771306101061985  0.0523404986222078
  0.7742376842895159  0.2204205653820918  0.9441476486722759
  0.8834356702427814  0.1083557718615553  0.0576424572268628
  0.7742757970033793  0.5537564294838052  0.9441367608883470
  0.8834656384446397  0.4417163931350870  0.0576440799042864
  0.7742295767314866  0.8870718259322938  0.9441570852585426
  0.8834580693559039  0.7750153168287340  0.0576447839570983
 
  0.00000000E+00  0.00000000E+00  0.00000000E+00
  0.00000000E+00  0.00000000E+00  0.00000000E+00
  0.00000000E+00  0.00000000E+00  0.00000000E+00
  0.00000000E+00  0.00000000E+00  0.00000000E+00
  0.00000000E+00  0.00000000E+00  0.00000000E+00
  0.00000000E+00  0.00000000E+00  0.00000000E+00
  0.00000000E+00  0.00000000E+00  0.00000000E+00
  0.00000000E+00  0.00000000E+00  0.00000000E+00
  0.00000000E+00  0.00000000E+00  0.00000000E+00
  0.00000000E+00  0.00000000E+00  0.00000000E+00
  0.00000000E+00  0.00000000E+00  0.00000000E+00
  0.00000000E+00  0.00000000E+00  0.00000000E+00
  0.00000000E+00  0.00000000E+00  0.00000000E+00
  0.00000000E+00  0.00000000E+00  0.00000000E+00
  0.00000000E+00  0.00000000E+00  0.00000000E+00
  0.00000000E+00  0.00000000E+00  0.00000000E+00
  0.00000000E+00  0.00000000E+00  0.00000000E+00
  0.00000000E+00  0.00000000E+00  0.00000000E+00
  0.00000000E+00  0.00000000E+00  0.00000000E+00
  0.00000000E+00  0.00000000E+00  0.00000000E+00
  0.00000000E+00  0.00000000E+00  0.00000000E+00
  0.00000000E+00  0.00000000E+00  0.00000000E+00
  0.00000000E+00  0.00000000E+00  0.00000000E+00
  0.00000000E+00  0.00000000E+00  0.00000000E+00
  0.00000000E+00  0.00000000E+00  0.00000000E+00
  0.00000000E+00  0.00000000E+00  0.00000000E+00
  0.00000000E+00  0.00000000E+00  0.00000000E+00
