crystal structure from VMoWS2 with Hexag
   1.00000000000000     
     8.3592602121294881    4.8043361726402907    0.0000000000000000
    -8.3650886972505791    4.8146328329664909    0.0000000000000000
     0.0000000000000000    0.0000000000000000   30.0000000000000000
   V    Mo   W    S 
     3     3     3    18
Direct
  0.3612457436487490  0.6606447683916251  0.0018580461496162
 -0.0233347256631434  0.6359437103621419  0.0014701774939534
  0.6397435757452758  0.3452292838731179 -0.0017665061767503
  0.3279466511486966  0.3275833894422019 -0.0002432478128052
  0.6891629879006290 -0.0179599770950715  0.0025278847960597
  0.6634365395656244  0.6718759122921142 -0.0005405582208866
  0.0016258188214695  0.0224201540996903 -0.0008386657921794
  1.0076636506642103  0.3139532814813148  0.0006374013641435
  0.3201042269208869  0.0274019485345434 -0.0022574462812010
  0.1145485953456868  0.2262760915708495  0.9433041881710615
  0.2177123764775055  0.1151336552960714  0.0548965114732358
  0.1190531326841343  0.5579919584978430  0.9546985435781458
  0.2235302318784644  0.4516570798744822  0.0528943620952049
  0.1047510979241217  0.8840678541603313  0.9497360959518371
  0.2249461783251050  0.7784573678259944  0.0423701593191860
  0.4467865882791129  0.2332896851680580  0.9435953252219961
  0.5565985245775084  0.1135804562317584  0.0440426535266763
  0.4456764231996382  0.5611098447245053  0.9466777071318224
  0.5535856450790636  0.4450754686353915  0.0522646787261732
  0.4454534033591940  0.8901376661880520  0.9564246011672717
  0.5570418248669520  0.7729479957005585  0.0561519277320055
  0.7713051906772044  0.2209893536567940  0.9555621208831931
  0.8928649648261048  0.1109223271778915  0.0576666069372919
  0.7786065383825830  0.5508410607972973  0.9480391578948867
  0.8727498450724328  0.4313801249187032  0.0482487307483967
  0.7862890828877805  0.8876412437827840  0.9450788831125991
  0.8991203408420322  0.7796227478886185  0.0475005600090496
 
  0.00000000E+00  0.00000000E+00  0.00000000E+00
  0.00000000E+00  0.00000000E+00  0.00000000E+00
  0.00000000E+00  0.00000000E+00  0.00000000E+00
  0.00000000E+00  0.00000000E+00  0.00000000E+00
  0.00000000E+00  0.00000000E+00  0.00000000E+00
  0.00000000E+00  0.00000000E+00  0.00000000E+00
  0.00000000E+00  0.00000000E+00  0.00000000E+00
  0.00000000E+00  0.00000000E+00  0.00000000E+00
  0.00000000E+00  0.00000000E+00  0.00000000E+00
  0.00000000E+00  0.00000000E+00  0.00000000E+00
  0.00000000E+00  0.00000000E+00  0.00000000E+00
  0.00000000E+00  0.00000000E+00  0.00000000E+00
  0.00000000E+00  0.00000000E+00  0.00000000E+00
  0.00000000E+00  0.00000000E+00  0.00000000E+00
  0.00000000E+00  0.00000000E+00  0.00000000E+00
  0.00000000E+00  0.00000000E+00  0.00000000E+00
  0.00000000E+00  0.00000000E+00  0.00000000E+00
  0.00000000E+00  0.00000000E+00  0.00000000E+00
  0.00000000E+00  0.00000000E+00  0.00000000E+00
  0.00000000E+00  0.00000000E+00  0.00000000E+00
  0.00000000E+00  0.00000000E+00  0.00000000E+00
  0.00000000E+00  0.00000000E+00  0.00000000E+00
  0.00000000E+00  0.00000000E+00  0.00000000E+00
  0.00000000E+00  0.00000000E+00  0.00000000E+00
  0.00000000E+00  0.00000000E+00  0.00000000E+00
  0.00000000E+00  0.00000000E+00  0.00000000E+00
  0.00000000E+00  0.00000000E+00  0.00000000E+00
