crystal structure from VMoWS2 with Hexag
   1.00000000000000     
     8.4107361311115181    4.7974660284897972    0.0000000000000000
    -8.4548085789730987    4.8743541352824513    0.0000000000000000
     0.0000000000000000    0.0000000000000000   30.0000000000000000
   V    Mo   W    S 
     3     3     3    18
Direct
  0.6428896776267164  0.2967301115152154 -0.0002048729111567
  0.9890959976727995  0.3640332115557856 -0.0003362402349893
  0.6749757065883708 -0.0194158349810837  0.0003595046126057
 -0.0058748956737641  0.6955641081738047 -0.0009423386202705
  0.6826316474575256  0.6983522233604892  0.0002170276886349
  0.3140925737473325  0.0129962297262942 -0.0012217134902042
  0.0026590364156876 -0.0175033596743460  0.0001900782950120
  0.3278224975625707  0.3018593477997661  0.0002849938122715
  0.3630551912330066  0.6534990913184917  0.0019228338535275
  0.1063231830043278  0.2281756263534062  0.9535334268657051
  0.2130925973336898  0.1064847630424504  0.0564842909978667
  0.1199453677737236  0.5664913668803605  0.9522539172952393
  0.2162282896145672  0.4367428913078683  0.0497062678941554
  0.1110307217956786  0.8953491900595724  0.9422971598856174
  0.2247784015366734  0.7739252085617480  0.0459037167081464
  0.4478590843246174  0.2194453664046048  0.9449466414514133
  0.5499211806706710  0.1004595951947713  0.0489400134745640
  0.4544024834774608  0.5487130499316936  0.9485078142131006
  0.5610152843770497  0.4431579885051576  0.0451308968427022
  0.4441765567691733  0.8858050567272100  0.9557738541915948
  0.5638552478786523  0.7850345011288393  0.0558184451234070
  0.7769848414719460  0.2193828671389227  0.9520922730917533
  0.8919356389455637  0.1206538520774071  0.0454667537848942
  0.7740852957407657  0.5511623002762651  0.9520262673728476
  0.8768623986948000  0.4466988019864007  0.0487190264155783
  0.7864933052134441  0.9007103693618473  0.9454624716417002
  0.8878771421839283  0.7837065297446144  0.0566673889443009
 
  0.00000000E+00  0.00000000E+00  0.00000000E+00
  0.00000000E+00  0.00000000E+00  0.00000000E+00
  0.00000000E+00  0.00000000E+00  0.00000000E+00
  0.00000000E+00  0.00000000E+00  0.00000000E+00
  0.00000000E+00  0.00000000E+00  0.00000000E+00
  0.00000000E+00  0.00000000E+00  0.00000000E+00
  0.00000000E+00  0.00000000E+00  0.00000000E+00
  0.00000000E+00  0.00000000E+00  0.00000000E+00
  0.00000000E+00  0.00000000E+00  0.00000000E+00
  0.00000000E+00  0.00000000E+00  0.00000000E+00
  0.00000000E+00  0.00000000E+00  0.00000000E+00
  0.00000000E+00  0.00000000E+00  0.00000000E+00
  0.00000000E+00  0.00000000E+00  0.00000000E+00
  0.00000000E+00  0.00000000E+00  0.00000000E+00
  0.00000000E+00  0.00000000E+00  0.00000000E+00
  0.00000000E+00  0.00000000E+00  0.00000000E+00
  0.00000000E+00  0.00000000E+00  0.00000000E+00
  0.00000000E+00  0.00000000E+00  0.00000000E+00
  0.00000000E+00  0.00000000E+00  0.00000000E+00
  0.00000000E+00  0.00000000E+00  0.00000000E+00
  0.00000000E+00  0.00000000E+00  0.00000000E+00
  0.00000000E+00  0.00000000E+00  0.00000000E+00
  0.00000000E+00  0.00000000E+00  0.00000000E+00
  0.00000000E+00  0.00000000E+00  0.00000000E+00
  0.00000000E+00  0.00000000E+00  0.00000000E+00
  0.00000000E+00  0.00000000E+00  0.00000000E+00
  0.00000000E+00  0.00000000E+00  0.00000000E+00
