crystal structure from VMoWS2 with Hexag
   1.00000000000000     
     8.2905291138669330    4.7822959855769911    0.0000000000000000
    -8.3182827443109773    4.8303270799887636    0.0000000000000000
     0.0000000000000000    0.0000000000000000   30.0000000000000000
   V    Mo   W    S 
     3     3     3    18
Direct
  1.0171026704619315  0.3670071691348400  0.0022000340287121
  0.3209335063871540 -0.0348226053918491 -0.0020983003114460
 -0.0215547393115119 -0.0360419586955488 -0.0019849391767402
  0.6456614138934134 -0.0382510138047902 -0.0018874982265860
  0.0145802016943155  0.6602888332619781 -0.0003299221657274
  0.3360923195176796  0.6680231131472228 -0.0002153328139245
  0.3478372119620978  0.3674322273966097  0.0012699857785280
  0.6893392201094125  0.3744165933110920  0.0030084807354206
  0.6468284159758475  0.6644469330640693 -0.0000333226620229
  0.1063767045772659  0.2203424612046833  0.9563332565473581
  0.2199954921108810  0.1082665031514193  0.0419656847168994
  0.1112900921219510  0.5498207700301919  0.9456320555062873
  0.2176438739441250  0.4440730402343833  0.0551595807129625
  0.1145858158512183  0.8901172180384640  0.9468767460117462
  0.2264703694654472  0.7819580171448710  0.0537135022447799
  0.4466232388444441  0.2212716018188174  0.9568005065529016
  0.5536167444854418  0.1125882071807716  0.0443948091068139
  0.4437482843467211  0.5596984562072107  0.9433222336775323
  0.5557328282195779  0.4500041180835805  0.0568596406179595
  0.4380411870128477  0.8860822925637516  0.9440250466188809
  0.5501026258509769  0.7722843409333425  0.0560834416463325
  0.7800419671068211  0.2241794894200386  0.9572973578003723
  0.8915670575476696  0.1119474933557639  0.0428248644521854
  0.7842758082040018  0.5673681113135185  0.9476724254246772
  0.8980847549873002  0.4478679970260389  0.0563055143938048
  0.7767942381098988  0.8839632955869638  0.9446779582368321
  0.8864031499600541  0.7738817487601379  0.0501260897454565
 
  0.00000000E+00  0.00000000E+00  0.00000000E+00
  0.00000000E+00  0.00000000E+00  0.00000000E+00
  0.00000000E+00  0.00000000E+00  0.00000000E+00
  0.00000000E+00  0.00000000E+00  0.00000000E+00
  0.00000000E+00  0.00000000E+00  0.00000000E+00
  0.00000000E+00  0.00000000E+00  0.00000000E+00
  0.00000000E+00  0.00000000E+00  0.00000000E+00
  0.00000000E+00  0.00000000E+00  0.00000000E+00
  0.00000000E+00  0.00000000E+00  0.00000000E+00
  0.00000000E+00  0.00000000E+00  0.00000000E+00
  0.00000000E+00  0.00000000E+00  0.00000000E+00
  0.00000000E+00  0.00000000E+00  0.00000000E+00
  0.00000000E+00  0.00000000E+00  0.00000000E+00
  0.00000000E+00  0.00000000E+00  0.00000000E+00
  0.00000000E+00  0.00000000E+00  0.00000000E+00
  0.00000000E+00  0.00000000E+00  0.00000000E+00
  0.00000000E+00  0.00000000E+00  0.00000000E+00
  0.00000000E+00  0.00000000E+00  0.00000000E+00
  0.00000000E+00  0.00000000E+00  0.00000000E+00
  0.00000000E+00  0.00000000E+00  0.00000000E+00
  0.00000000E+00  0.00000000E+00  0.00000000E+00
  0.00000000E+00  0.00000000E+00  0.00000000E+00
  0.00000000E+00  0.00000000E+00  0.00000000E+00
  0.00000000E+00  0.00000000E+00  0.00000000E+00
  0.00000000E+00  0.00000000E+00  0.00000000E+00
  0.00000000E+00  0.00000000E+00  0.00000000E+00
  0.00000000E+00  0.00000000E+00  0.00000000E+00
