crystal structure from VMoWS2 with Hexag
   1.00000000000000     
     8.3453145094264229    4.7938780680203488    0.0000000000000000
    -8.3348352869034201    4.7756023398176124    0.0000000000000000
     0.0000000000000000    0.0000000000000000   30.0000000000000000
   V    Mo   W    S 
     3     3     3    18
Direct
  0.6469791250380813  0.6837001112660505 -0.0023773064390265
 -0.0201303689071925  0.0115630030112472 -0.0014944773941012
  0.3579284610203484 -0.0091325464994500  0.0020458810769930
  0.6880514038353694  0.3152703970710780  0.0022166074927999
  0.3468942746867474  0.6780099574680469  0.0000261488687394
  0.6626444215238909  0.0024254515554971 -0.0002234638803491
  0.9843409517900453  0.3244327768231854 -0.0002449386903255
  0.0105710658293808  0.6395705553685174  0.0020146910653306
  0.3181776283980113  0.3567881663266907 -0.0020704301548412
  0.1052818395049130  0.2169402049746288  0.9457491419408562
  0.2220692314880736  0.1110681149453093  0.0424672644211437
  0.1143796172819256  0.5501271074497271  0.9465534693439229
  0.2183989770063346  0.4499645689652705  0.0530891817614100
  0.1127078091724020  0.8895894817392147  0.9585253260136325
  0.2267321426925266  0.7838955104106565  0.0540731855284015
  0.4437851033445455  0.2217355783935174  0.9559396351595190
  0.5530759061341283  0.1061252807297862  0.0562277262423048
  0.4489225849947865  0.5644400507659428  0.9438183427882543
  0.5581992028315003  0.4483413224260919  0.0433509965914585
  0.4435243661138122  0.8933595333230014  0.9458832431325024
  0.5593487513596404  0.7785535473884423  0.0535647296826906
  0.7790587116942205  0.2169154153535333  0.9440056024888487
  0.8886111170884819  0.1082492854877856  0.0535649109299672
  0.7757390323761705  0.5561672424963530  0.9556106749630523
  0.8910455984966154  0.4373122383576097  0.0581414362339941
  0.7770708862008161  0.8872670396503517  0.9463285688092717
  0.8848066124414108  0.7755350582294863  0.0432137512235449
 
  0.00000000E+00  0.00000000E+00  0.00000000E+00
  0.00000000E+00  0.00000000E+00  0.00000000E+00
  0.00000000E+00  0.00000000E+00  0.00000000E+00
  0.00000000E+00  0.00000000E+00  0.00000000E+00
  0.00000000E+00  0.00000000E+00  0.00000000E+00
  0.00000000E+00  0.00000000E+00  0.00000000E+00
  0.00000000E+00  0.00000000E+00  0.00000000E+00
  0.00000000E+00  0.00000000E+00  0.00000000E+00
  0.00000000E+00  0.00000000E+00  0.00000000E+00
  0.00000000E+00  0.00000000E+00  0.00000000E+00
  0.00000000E+00  0.00000000E+00  0.00000000E+00
  0.00000000E+00  0.00000000E+00  0.00000000E+00
  0.00000000E+00  0.00000000E+00  0.00000000E+00
  0.00000000E+00  0.00000000E+00  0.00000000E+00
  0.00000000E+00  0.00000000E+00  0.00000000E+00
  0.00000000E+00  0.00000000E+00  0.00000000E+00
  0.00000000E+00  0.00000000E+00  0.00000000E+00
  0.00000000E+00  0.00000000E+00  0.00000000E+00
  0.00000000E+00  0.00000000E+00  0.00000000E+00
  0.00000000E+00  0.00000000E+00  0.00000000E+00
  0.00000000E+00  0.00000000E+00  0.00000000E+00
  0.00000000E+00  0.00000000E+00  0.00000000E+00
  0.00000000E+00  0.00000000E+00  0.00000000E+00
  0.00000000E+00  0.00000000E+00  0.00000000E+00
  0.00000000E+00  0.00000000E+00  0.00000000E+00
  0.00000000E+00  0.00000000E+00  0.00000000E+00
  0.00000000E+00  0.00000000E+00  0.00000000E+00
