crystal structure from VMoWS2 with Hexag
   1.00000000000000     
     8.3169315411750340    4.8176474927782662    0.0000000000000000
    -8.3105868864853605    4.8066423463580685    0.0000000000000000
     0.0000000000000000    0.0000000000000000   30.0000000000000000
   V    Mo   W    S 
     3     3     3    18
Direct
  0.3489705539139242  0.0073528838264420  0.0004917844406909
  0.3258225596354414  0.6663782265261404  0.0007336877551561
  0.9978777095243504  0.3329000274434042 -0.0000636761534688
  0.6655246892217231  0.0126173758969788  0.0002089031454980
 -0.0130653963011089  0.6786611405563554 -0.0006495482193161
  0.6950160355238175  0.6817064685346128 -0.0000958190844176
 -0.0168286075401660 -0.0247928203213194 -0.0004308100320717
  0.3366092362563830  0.3307723057672339 -0.0000686269485119
  0.6601852171167393  0.3183990204062810  0.0001646518755466
  0.1074481390938577  0.2195277441962066  0.9507219829375878
  0.2222368832990383  0.1055404777227420  0.0498643658581899
  0.1111374853433010  0.5556257057118417  0.9514642769124807
  0.2191005572647485  0.4444287809846959  0.0493566456555915
  0.1177826113897164  0.8938379224121208  0.9480427553313281
  0.2250201933525637  0.7795774016822763  0.0492306439605020
  0.4414416260292592  0.2131481027434501  0.9476496136886433
  0.5486594402569935  0.1079308351953117  0.0541990996873022
  0.4475627954133011  0.5598034238765627  0.9520166496585706
  0.5581395914438446  0.4458962294499668  0.0509484190478704
  0.4379796886875837  0.8861503915136083  0.9498534750241446
  0.5517801181750254  0.7752295731223676  0.0489553311197706
  0.7843825188764603  0.2274119160178038  0.9472315645523066
  0.8929262211945154  0.1155693156631882  0.0503243686208793
  0.7748428762833052  0.5510249707785947  0.9466403970733873
  0.8909932310654861  0.4424199475728404  0.0495302951359188
  0.7756947407363237  0.8911099318248368  0.9463240446715327
  0.8909737381805598  0.7799871543729684  0.0573554234848945
 
  0.00000000E+00  0.00000000E+00  0.00000000E+00
  0.00000000E+00  0.00000000E+00  0.00000000E+00
  0.00000000E+00  0.00000000E+00  0.00000000E+00
  0.00000000E+00  0.00000000E+00  0.00000000E+00
  0.00000000E+00  0.00000000E+00  0.00000000E+00
  0.00000000E+00  0.00000000E+00  0.00000000E+00
  0.00000000E+00  0.00000000E+00  0.00000000E+00
  0.00000000E+00  0.00000000E+00  0.00000000E+00
  0.00000000E+00  0.00000000E+00  0.00000000E+00
  0.00000000E+00  0.00000000E+00  0.00000000E+00
  0.00000000E+00  0.00000000E+00  0.00000000E+00
  0.00000000E+00  0.00000000E+00  0.00000000E+00
  0.00000000E+00  0.00000000E+00  0.00000000E+00
  0.00000000E+00  0.00000000E+00  0.00000000E+00
  0.00000000E+00  0.00000000E+00  0.00000000E+00
  0.00000000E+00  0.00000000E+00  0.00000000E+00
  0.00000000E+00  0.00000000E+00  0.00000000E+00
  0.00000000E+00  0.00000000E+00  0.00000000E+00
  0.00000000E+00  0.00000000E+00  0.00000000E+00
  0.00000000E+00  0.00000000E+00  0.00000000E+00
  0.00000000E+00  0.00000000E+00  0.00000000E+00
  0.00000000E+00  0.00000000E+00  0.00000000E+00
  0.00000000E+00  0.00000000E+00  0.00000000E+00
  0.00000000E+00  0.00000000E+00  0.00000000E+00
  0.00000000E+00  0.00000000E+00  0.00000000E+00
  0.00000000E+00  0.00000000E+00  0.00000000E+00
  0.00000000E+00  0.00000000E+00  0.00000000E+00
