crystal structure from VMoWS2 with Hexag
   1.00000000000000     
     8.3359018023058269    4.8112088968311646    0.0000000000000000
    -8.3377609050615735    4.8144301405960634    0.0000000000000000
     0.0000000000000000    0.0000000000000000   30.0000000000000000
   V    Mo   W    S 
     3     3     3    18
Direct
  1.0012280520131951  0.3030445058870570  0.0000778282747800
  0.6838459300553001  0.7019570089627155  0.0001261585040823
  0.3157794442051348  0.0179858596952439 -0.0002659074586504
  0.6819027396547953 -0.0062765750154142  0.0005280377750459
  0.3184655713708098  0.3123458637439036 -0.0005696881686314
 -0.0001652873937512  0.0061630243859980 -0.0000327418138041
 -0.0003444989981974  0.7032330529838775 -0.0000247415059655
  0.3634021603697076  0.6601736752345303  0.0002677272691054
  0.6353063134795240  0.2977612353959310 -0.0000835790528648
  0.1093489707595796  0.2249557625226207  0.9447377573071878
  0.2181418837300213  0.1085789455624760  0.0548459939203571
  0.1110193246869162  0.5538071701438086  0.9578683533401429
  0.2170608058186269  0.4395465248384601  0.0510137622594851
  0.1172411527359507  0.9009262189405507  0.9449758501029651
  0.2260407260091027  0.7828406258353611  0.0468800710371201
  0.4365065748106722  0.2122036339947425  0.9444045926462584
  0.5379298821438878  0.0940770640731298  0.0511794594463035
  0.4618598491439311  0.5558684202559567  0.9486628673450418
  0.5609247248013834  0.4510740357917877  0.0452328606740600
  0.4387054002428032  0.8895800907716120  0.9550813450288126
  0.5632801645792913  0.7758247739072714  0.0555029361223717
  0.7830551585940204  0.2229852567246725  0.9494335377593359
  0.8906822114423438  0.1158344297391601  0.0551978040961129
  0.7739624105851473  0.5570564225377550  0.9529207515588891
  0.8888330209635912  0.4425375125921471  0.0420208831715666
  0.7817721425797106  0.8903727692791641  0.9450642455272200
  0.8824296250534817  0.7837571446930558  0.0549537340336635
 
  0.00000000E+00  0.00000000E+00  0.00000000E+00
  0.00000000E+00  0.00000000E+00  0.00000000E+00
  0.00000000E+00  0.00000000E+00  0.00000000E+00
  0.00000000E+00  0.00000000E+00  0.00000000E+00
  0.00000000E+00  0.00000000E+00  0.00000000E+00
  0.00000000E+00  0.00000000E+00  0.00000000E+00
  0.00000000E+00  0.00000000E+00  0.00000000E+00
  0.00000000E+00  0.00000000E+00  0.00000000E+00
  0.00000000E+00  0.00000000E+00  0.00000000E+00
  0.00000000E+00  0.00000000E+00  0.00000000E+00
  0.00000000E+00  0.00000000E+00  0.00000000E+00
  0.00000000E+00  0.00000000E+00  0.00000000E+00
  0.00000000E+00  0.00000000E+00  0.00000000E+00
  0.00000000E+00  0.00000000E+00  0.00000000E+00
  0.00000000E+00  0.00000000E+00  0.00000000E+00
  0.00000000E+00  0.00000000E+00  0.00000000E+00
  0.00000000E+00  0.00000000E+00  0.00000000E+00
  0.00000000E+00  0.00000000E+00  0.00000000E+00
  0.00000000E+00  0.00000000E+00  0.00000000E+00
  0.00000000E+00  0.00000000E+00  0.00000000E+00
  0.00000000E+00  0.00000000E+00  0.00000000E+00
  0.00000000E+00  0.00000000E+00  0.00000000E+00
  0.00000000E+00  0.00000000E+00  0.00000000E+00
  0.00000000E+00  0.00000000E+00  0.00000000E+00
  0.00000000E+00  0.00000000E+00  0.00000000E+00
  0.00000000E+00  0.00000000E+00  0.00000000E+00
  0.00000000E+00  0.00000000E+00  0.00000000E+00
