crystal structure from VMoWS2 with Hexag
   1.00000000000000     
     8.3271148097404932    4.8218726402568404    0.0000000000000000
    -8.3356676820170019    4.8366857764050479    0.0000000000000000
     0.0000000000000000    0.0000000000000000   30.0000000000000000
   V    Mo   W    S 
     3     3     3    18
Direct
  0.6487792274199634 -0.0271374905986114 -0.0002447882520154
 -0.0194638299921693 -0.0364283850706680 -0.0016953243654104
  0.6310714917729577  0.3273192165791808  0.0013524548672980
  0.3487066479985910  0.3684112488046200  0.0002818845622839
  0.3353850016572848  0.6658862616697778  0.0001083420577274
  0.6402743545546012  0.6576754613067778  0.0007022485861175
  1.0358484260111229  0.3673020806279630 -0.0002198093224394
  0.0356849841287009  0.6821592417224971 -0.0004546555526018
  0.3246448419831600 -0.0225271997238225  0.0000656351604279
  0.1097260008316089  0.2180042138640473  0.9521257484483411
  0.2156246712316569  0.1120004104009768  0.0430852281447773
  0.1198002665243001  0.5636110402162590  0.9433308266440036
  0.2300702164953708  0.4526828769220807  0.0567992743243552
  0.1102489897618909  0.8891408071813013  0.9453086690979884
  0.2300122382199414  0.7790745714921458  0.0564854578105253
  0.4379554652270766  0.2227436932820782  0.9500991240396114
  0.5570011676487332  0.1090572942609859  0.0493159659409833
  0.4448450030685530  0.5628862337463827  0.9434201545236588
  0.5538042874630205  0.4434370245792983  0.0556468084769932
  0.4513084287914224  0.8950046935208026  0.9464270578187182
  0.5596206154491231  0.7829131623392406  0.0548587110829985
  0.7768546225244158  0.2237756238226937  0.9590588684562952
  0.8915244223353183  0.1101553611018699  0.0425141929328967
  0.7803796501407962  0.5511848579767146  0.9562196118089026
  0.8867993016147966  0.4443833329788102  0.0475772369453185
  0.7732653414907276  0.8859006657863787  0.9483397844242630
  0.8884426190840107  0.7695981546877860  0.0494911905379619
 
  0.00000000E+00  0.00000000E+00  0.00000000E+00
  0.00000000E+00  0.00000000E+00  0.00000000E+00
  0.00000000E+00  0.00000000E+00  0.00000000E+00
  0.00000000E+00  0.00000000E+00  0.00000000E+00
  0.00000000E+00  0.00000000E+00  0.00000000E+00
  0.00000000E+00  0.00000000E+00  0.00000000E+00
  0.00000000E+00  0.00000000E+00  0.00000000E+00
  0.00000000E+00  0.00000000E+00  0.00000000E+00
  0.00000000E+00  0.00000000E+00  0.00000000E+00
  0.00000000E+00  0.00000000E+00  0.00000000E+00
  0.00000000E+00  0.00000000E+00  0.00000000E+00
  0.00000000E+00  0.00000000E+00  0.00000000E+00
  0.00000000E+00  0.00000000E+00  0.00000000E+00
  0.00000000E+00  0.00000000E+00  0.00000000E+00
  0.00000000E+00  0.00000000E+00  0.00000000E+00
  0.00000000E+00  0.00000000E+00  0.00000000E+00
  0.00000000E+00  0.00000000E+00  0.00000000E+00
  0.00000000E+00  0.00000000E+00  0.00000000E+00
  0.00000000E+00  0.00000000E+00  0.00000000E+00
  0.00000000E+00  0.00000000E+00  0.00000000E+00
  0.00000000E+00  0.00000000E+00  0.00000000E+00
  0.00000000E+00  0.00000000E+00  0.00000000E+00
  0.00000000E+00  0.00000000E+00  0.00000000E+00
  0.00000000E+00  0.00000000E+00  0.00000000E+00
  0.00000000E+00  0.00000000E+00  0.00000000E+00
  0.00000000E+00  0.00000000E+00  0.00000000E+00
  0.00000000E+00  0.00000000E+00  0.00000000E+00
