crystal structure from VMoWS2 with Hexag
   1.00000000000000     
     8.2977066593582105    4.8358690715519392    0.0000000000000000
    -8.2974207888719143    4.8353632993502229    0.0000000000000000
     0.0000000000000000    0.0000000000000000   30.0000000000000000
   V    Mo   W    S 
     3     3     3    18
Direct
  0.6507891220676326  0.3176592669529170 -0.0000447093400082
  0.9815793896486843  0.3003018646027851 -0.0013870456818878
  0.6336043357389113  0.6486190705361294  0.0014133498573420
  0.3307418453509465  0.3515437478944177  0.0002919065697728
  0.0334405072672194  0.6994710972726970 -0.0000099275769681
  0.6828390253698688 -0.0029061153559932 -0.0002928312449228
  0.0165127140116547  0.0096824156150950 -0.0000994037239670
  0.3164831960334084 -0.0182429186387789 -0.0000069513490323
  0.3432338452933080  0.6830747655805749  0.0001441630897271
  0.1065031067571255  0.2248036997234480  0.9464627594631120
  0.2303734074045080  0.1175102030345953  0.0519573384847725
  0.1086046881650000  0.5491926135075709  0.9520365998252667
  0.2067909241156125  0.4452270750307901  0.0495675398915493
  0.1178080443878532  0.8971156944848530  0.9433541561396573
  0.2304805350646080  0.7840567450439603  0.0567764102430237
  0.4434282385978571  0.2244667697313871  0.9503829479557105
  0.5579834713427780  0.1106293984528403  0.0498406433597494
  0.4458530068704687  0.5631189668187304  0.9465698121457781
  0.5541852531513163  0.4428007842184627  0.0511940001987199
  0.4504896172728964  0.8963597469315137  0.9476535057387337
  0.5581617753336757  0.7733190971758038  0.0536451878231441
  0.7758412413663268  0.2209086641357178  0.9488346546403739
  0.8959670575790315  0.1120659297979661  0.0532440260730593
  0.7775590830119967  0.5550182319925491  0.9565780997721129
  0.8879575894511991  0.4438200387432105  0.0435245851075542
  0.7784677644021845  0.8736529599960724  0.9505726804026098
  0.8825356683808639  0.7749446401982594  0.0477964013350026
 
  0.00000000E+00  0.00000000E+00  0.00000000E+00
  0.00000000E+00  0.00000000E+00  0.00000000E+00
  0.00000000E+00  0.00000000E+00  0.00000000E+00
  0.00000000E+00  0.00000000E+00  0.00000000E+00
  0.00000000E+00  0.00000000E+00  0.00000000E+00
  0.00000000E+00  0.00000000E+00  0.00000000E+00
  0.00000000E+00  0.00000000E+00  0.00000000E+00
  0.00000000E+00  0.00000000E+00  0.00000000E+00
  0.00000000E+00  0.00000000E+00  0.00000000E+00
  0.00000000E+00  0.00000000E+00  0.00000000E+00
  0.00000000E+00  0.00000000E+00  0.00000000E+00
  0.00000000E+00  0.00000000E+00  0.00000000E+00
  0.00000000E+00  0.00000000E+00  0.00000000E+00
  0.00000000E+00  0.00000000E+00  0.00000000E+00
  0.00000000E+00  0.00000000E+00  0.00000000E+00
  0.00000000E+00  0.00000000E+00  0.00000000E+00
  0.00000000E+00  0.00000000E+00  0.00000000E+00
  0.00000000E+00  0.00000000E+00  0.00000000E+00
  0.00000000E+00  0.00000000E+00  0.00000000E+00
  0.00000000E+00  0.00000000E+00  0.00000000E+00
  0.00000000E+00  0.00000000E+00  0.00000000E+00
  0.00000000E+00  0.00000000E+00  0.00000000E+00
  0.00000000E+00  0.00000000E+00  0.00000000E+00
  0.00000000E+00  0.00000000E+00  0.00000000E+00
  0.00000000E+00  0.00000000E+00  0.00000000E+00
  0.00000000E+00  0.00000000E+00  0.00000000E+00
  0.00000000E+00  0.00000000E+00  0.00000000E+00
