crystal structure from VMoWS2 with Hexag
   1.00000000000000     
     8.3511072323186735    4.7982238140209921    0.0000000000000000
    -8.3489466146978266    4.7947191253352717    0.0000000000000000
     0.0000000000000000    0.0000000000000000   30.0000000000000000
   V    Mo   W    S 
     3     3     3    18
Direct
  0.6523742318464106  0.6828822274560123 -0.0010241509076943
  0.6937502997560133  0.3241263826978123  0.0017675019820390
 -0.0237488064325030  0.0153845264743290 -0.0025238508112302
  0.0205490388137862  0.6510537250692116  0.0016030852118337
  0.3302269226412464  0.6688850194357407 -0.0001312068963047
  0.6452480675858535 -0.0203130905341716  0.0000511143898122
  1.0186560493508505  0.3548428682053693 -0.0002041673032912
  0.3411172323564669 -0.0278693353160530  0.0013068900534407
  0.3200098986006554  0.3547745276052631 -0.0009389392927331
  0.1078438211124653  0.2227792095342017  0.9456142660331250
  0.2155838961273577  0.1065203312161392  0.0428552947552143
  0.1167589047516230  0.5556824999523807  0.9434437060786633
  0.2215683866708840  0.4489777038108603  0.0562787208120213
  0.1077141339566513  0.8904269437881246  0.9543704118321608
  0.2244768016898127  0.7754557799329533  0.0575387754659869
  0.4484536359063801  0.2241746436558704  0.9579965101455048
  0.5559974130293359  0.1119138322601778  0.0536200829845385
  0.4505139021309488  0.5601640978058295  0.9456634946617513
  0.5600317964527990  0.4467305872281985  0.0444171995683522
  0.4423921716792007  0.8838152380160288  0.9435197579597823
  0.5546380608307807  0.7732606694635579  0.0541833781157056
  0.7812616297024031  0.2207797391264096  0.9497246578919343
  0.8848622075083622  0.1134216656674362  0.0497427920620053
  0.7758253241374393  0.5535686895483414  0.9567232874171229
  0.8894189649579347  0.4407669203555345  0.0555327342655902
  0.7736720788635574  0.8852095202997030  0.9462244918195573
  0.8890183894102425  0.7807995307223052  0.0426440609051042
 
  0.00000000E+00  0.00000000E+00  0.00000000E+00
  0.00000000E+00  0.00000000E+00  0.00000000E+00
  0.00000000E+00  0.00000000E+00  0.00000000E+00
  0.00000000E+00  0.00000000E+00  0.00000000E+00
  0.00000000E+00  0.00000000E+00  0.00000000E+00
  0.00000000E+00  0.00000000E+00  0.00000000E+00
  0.00000000E+00  0.00000000E+00  0.00000000E+00
  0.00000000E+00  0.00000000E+00  0.00000000E+00
  0.00000000E+00  0.00000000E+00  0.00000000E+00
  0.00000000E+00  0.00000000E+00  0.00000000E+00
  0.00000000E+00  0.00000000E+00  0.00000000E+00
  0.00000000E+00  0.00000000E+00  0.00000000E+00
  0.00000000E+00  0.00000000E+00  0.00000000E+00
  0.00000000E+00  0.00000000E+00  0.00000000E+00
  0.00000000E+00  0.00000000E+00  0.00000000E+00
  0.00000000E+00  0.00000000E+00  0.00000000E+00
  0.00000000E+00  0.00000000E+00  0.00000000E+00
  0.00000000E+00  0.00000000E+00  0.00000000E+00
  0.00000000E+00  0.00000000E+00  0.00000000E+00
  0.00000000E+00  0.00000000E+00  0.00000000E+00
  0.00000000E+00  0.00000000E+00  0.00000000E+00
  0.00000000E+00  0.00000000E+00  0.00000000E+00
  0.00000000E+00  0.00000000E+00  0.00000000E+00
  0.00000000E+00  0.00000000E+00  0.00000000E+00
  0.00000000E+00  0.00000000E+00  0.00000000E+00
  0.00000000E+00  0.00000000E+00  0.00000000E+00
  0.00000000E+00  0.00000000E+00  0.00000000E+00
