crystal structure from VMoWS2 with Hexag
   1.00000000000000     
     8.3294322615506662    4.8360718260546651    0.0000000000000000
    -8.3340436041474089    4.8444407185026295    0.0000000000000000
     0.0000000000000000    0.0000000000000000   30.0000000000000000
   V    Mo   W    S 
     3     3     3    18
Direct
 -0.0208654612809155  0.6271176515088774 -0.0017656727271776
  0.6587610058018397  0.0215447285743137  0.0002597197726762
  0.3459449237715275  0.7044469959354044  0.0026538121055253
  0.3489607474430241  0.0254920520881650  0.0007090663675522
  0.9689103461727490  0.3157891904358981 -0.0007239142818303
  0.6628938276351584  0.3293819449113378 -0.0002895752667473
  0.0315579984816239  0.0363100363727972  0.0019459703731533
  0.3466618193457930  0.3169939371273818  0.0000377682538319
  0.6523857896237801  0.6277242640623094 -0.0016892989314478
  0.1185738795956734  0.2311758525234852  0.9472531728130408
  0.2288335766474650  0.1170139546209907  0.0576530719648077
  0.1144811547553699  0.5576042100972959  0.9510685655907938
  0.2260664419659180  0.4518801314790654  0.0407135949222334
  0.1063855122320365  0.8814365095177707  0.9553098756572718
  0.2125977978282963  0.7775683660830298  0.0481530649831111
  0.4491231636339669  0.2235564929949295  0.9431004739165523
  0.5575465241301057  0.1098072777677668  0.0551212485298353
  0.4383550531850426  0.5555632517772850  0.9505164434166107
  0.5539547490472195  0.4371697894009769  0.0558060178516485
  0.4495009988533112  0.8957574988744174  0.9486312136611864
  0.5602338650324293  0.7820295892451519  0.0466719385858647
  0.7692932865556781  0.2130164301323846  0.9446531696800369
  0.8799175155135974  0.1050326200065063  0.0524100286873012
  0.7813228912776793  0.5497317036421190  0.9451768051290720
  0.8861911979915359  0.4412128377405428  0.0533292093333648
  0.7782006356320716  0.8885037204486539  0.9589598747789604
  0.8924252125650006  0.7753534161087182  0.0443342540327605
 
  0.00000000E+00  0.00000000E+00  0.00000000E+00
  0.00000000E+00  0.00000000E+00  0.00000000E+00
  0.00000000E+00  0.00000000E+00  0.00000000E+00
  0.00000000E+00  0.00000000E+00  0.00000000E+00
  0.00000000E+00  0.00000000E+00  0.00000000E+00
  0.00000000E+00  0.00000000E+00  0.00000000E+00
  0.00000000E+00  0.00000000E+00  0.00000000E+00
  0.00000000E+00  0.00000000E+00  0.00000000E+00
  0.00000000E+00  0.00000000E+00  0.00000000E+00
  0.00000000E+00  0.00000000E+00  0.00000000E+00
  0.00000000E+00  0.00000000E+00  0.00000000E+00
  0.00000000E+00  0.00000000E+00  0.00000000E+00
  0.00000000E+00  0.00000000E+00  0.00000000E+00
  0.00000000E+00  0.00000000E+00  0.00000000E+00
  0.00000000E+00  0.00000000E+00  0.00000000E+00
  0.00000000E+00  0.00000000E+00  0.00000000E+00
  0.00000000E+00  0.00000000E+00  0.00000000E+00
  0.00000000E+00  0.00000000E+00  0.00000000E+00
  0.00000000E+00  0.00000000E+00  0.00000000E+00
  0.00000000E+00  0.00000000E+00  0.00000000E+00
  0.00000000E+00  0.00000000E+00  0.00000000E+00
  0.00000000E+00  0.00000000E+00  0.00000000E+00
  0.00000000E+00  0.00000000E+00  0.00000000E+00
  0.00000000E+00  0.00000000E+00  0.00000000E+00
  0.00000000E+00  0.00000000E+00  0.00000000E+00
  0.00000000E+00  0.00000000E+00  0.00000000E+00
  0.00000000E+00  0.00000000E+00  0.00000000E+00
