crystal structure from VMoWS2 with Hexag
   1.00000000000000     
     8.3205739438332671    4.8209919035959974    0.0000000000000000
    -8.3287467294524440    4.8352243109516397    0.0000000000000000
     0.0000000000000000    0.0000000000000000   30.0000000000000000
   V    Mo   W    S 
     3     3     3    18
Direct
  0.3490755006474529  0.0303660907126356  0.0009651322786385
 -0.0115446165522844  0.6321516684551101 -0.0003542129165455
  0.6450391594978713  0.6319755708554933 -0.0011940465471583
  0.3205406949958212  0.6355109371982615 -0.0001861614109934
  0.3333145557733100  0.3386414039210905  0.0003054698424328
  0.6423339330775307  0.3224335185619000 -0.0000875563657704
  0.0332731112687957  0.0332198728511645 -0.0000317167349429
  1.0325124253311866  0.3463709513423500  0.0006922745872061
  0.6476740359732750  0.0185528266115524 -0.0001539146739998
  0.1184733565568057  0.2315891382393507  0.9437175320661942
  0.2302942767680705  0.1137527981363745  0.0550127330077918
  0.1092218198662381  0.5547405511491652  0.9456158596308128
  0.2274221053078091  0.4418285062592029  0.0574882784014394
  0.1147616501780123  0.8874538118883722  0.9537867404680646
  0.2189522687166964  0.7792192948893825  0.0437880674051533
  0.4382475125815263  0.2200618411892026  0.9456771763292477
  0.5444264984241987  0.1102613143523971  0.0562158036262220
  0.4491233127755866  0.5569555283588175  0.9451848850892708
  0.5578449905811096  0.4480700126789701  0.0543815136271007
  0.4332242608314379  0.8889107767410215  0.9518123715093180
  0.5595692130634859  0.7768557205315301  0.0470044582265318
  0.7844586208834550  0.2307474288818615  0.9507124951879251
  0.8902957636295230  0.1133000654845512  0.0503774465194046
  0.7764186586640857  0.5551483131842408  0.9486410991507574
  0.8873683341048239  0.4362817311263504  0.0502045490875332
  0.7754678821016561  0.8881841872742130  0.9582450293840119
  0.8904251283895014  0.7756305926030189  0.0421785924243522
 
  0.00000000E+00  0.00000000E+00  0.00000000E+00
  0.00000000E+00  0.00000000E+00  0.00000000E+00
  0.00000000E+00  0.00000000E+00  0.00000000E+00
  0.00000000E+00  0.00000000E+00  0.00000000E+00
  0.00000000E+00  0.00000000E+00  0.00000000E+00
  0.00000000E+00  0.00000000E+00  0.00000000E+00
  0.00000000E+00  0.00000000E+00  0.00000000E+00
  0.00000000E+00  0.00000000E+00  0.00000000E+00
  0.00000000E+00  0.00000000E+00  0.00000000E+00
  0.00000000E+00  0.00000000E+00  0.00000000E+00
  0.00000000E+00  0.00000000E+00  0.00000000E+00
  0.00000000E+00  0.00000000E+00  0.00000000E+00
  0.00000000E+00  0.00000000E+00  0.00000000E+00
  0.00000000E+00  0.00000000E+00  0.00000000E+00
  0.00000000E+00  0.00000000E+00  0.00000000E+00
  0.00000000E+00  0.00000000E+00  0.00000000E+00
  0.00000000E+00  0.00000000E+00  0.00000000E+00
  0.00000000E+00  0.00000000E+00  0.00000000E+00
  0.00000000E+00  0.00000000E+00  0.00000000E+00
  0.00000000E+00  0.00000000E+00  0.00000000E+00
  0.00000000E+00  0.00000000E+00  0.00000000E+00
  0.00000000E+00  0.00000000E+00  0.00000000E+00
  0.00000000E+00  0.00000000E+00  0.00000000E+00
  0.00000000E+00  0.00000000E+00  0.00000000E+00
  0.00000000E+00  0.00000000E+00  0.00000000E+00
  0.00000000E+00  0.00000000E+00  0.00000000E+00
  0.00000000E+00  0.00000000E+00  0.00000000E+00
