crystal structure from VMoWS2 with Hexag
   1.00000000000000     
     8.3484553539237023    4.8207038339174551    0.0000000000000000
    -8.3484931171856065    4.8207744521384619    0.0000000000000000
     0.0000000000000000    0.0000000000000000   30.0000000000000000
   V    Mo   W    S 
     3     3     3    18
Direct
  0.3371358120024814 -0.0035426130661089  0.0003033359333500
 -0.0074505459612664 -0.0038130109924125  0.0002649879266389
  0.3371470921115197  0.3405520278771455  0.0002889908960293
  0.6540170548329801  0.6793214715532577  0.0001186082709372
  0.3587611725336444  0.6793823905789662  0.0001163929110440
  0.6539411163935939 -0.0254497688753668  0.0001164618771294
  0.9865069513591619  0.3464174777047671 -0.0002088294639994
 -0.0135560856789385  0.6400307617738282 -0.0002066872904267
  0.6930289258089231  0.3465411710968019 -0.0002171366046213
  0.1106275575909385  0.2225508192150857  0.9526692844812715
  0.2221540708432861  0.1110268899733299  0.0467173129998680
  0.1169914454831683  0.5584732888904287  0.9477343710131624
  0.2227849035846678  0.4429555385102595  0.0493159670699701
  0.1106695962196419  0.8880257313187984  0.9526690397543690
  0.2227732589277020  0.7797796078430953  0.0493182343674936
  0.4451305119487807  0.2224998563178868  0.9526094786504513
  0.5534141007744684  0.1103854147606001  0.0493658504952606
  0.4423949392972693  0.5514761345715182  0.9468222759752590
  0.5534201337642227  0.4429812746307928  0.0493780742853454
  0.4423672070921537  0.8908775605715481  0.9468122617629899
  0.5555217508402363  0.7777046848524632  0.0572606168607916
  0.7746848322170938  0.2161960812834465  0.9476899463623945
  0.8902610380378914  0.1103719617684864  0.0493640857443983
  0.7746916916704012  0.5584304514819892  0.9476659851090826
  0.8887594235187217  0.4443586078940645  0.0578473998930737
  0.7817710534976139  0.8908505942607889  0.9468014679206433
  0.8902654447266225  0.7798300476821116  0.0493821219980852
 
  0.00000000E+00  0.00000000E+00  0.00000000E+00
  0.00000000E+00  0.00000000E+00  0.00000000E+00
  0.00000000E+00  0.00000000E+00  0.00000000E+00
  0.00000000E+00  0.00000000E+00  0.00000000E+00
  0.00000000E+00  0.00000000E+00  0.00000000E+00
  0.00000000E+00  0.00000000E+00  0.00000000E+00
  0.00000000E+00  0.00000000E+00  0.00000000E+00
  0.00000000E+00  0.00000000E+00  0.00000000E+00
  0.00000000E+00  0.00000000E+00  0.00000000E+00
  0.00000000E+00  0.00000000E+00  0.00000000E+00
  0.00000000E+00  0.00000000E+00  0.00000000E+00
  0.00000000E+00  0.00000000E+00  0.00000000E+00
  0.00000000E+00  0.00000000E+00  0.00000000E+00
  0.00000000E+00  0.00000000E+00  0.00000000E+00
  0.00000000E+00  0.00000000E+00  0.00000000E+00
  0.00000000E+00  0.00000000E+00  0.00000000E+00
  0.00000000E+00  0.00000000E+00  0.00000000E+00
  0.00000000E+00  0.00000000E+00  0.00000000E+00
  0.00000000E+00  0.00000000E+00  0.00000000E+00
  0.00000000E+00  0.00000000E+00  0.00000000E+00
  0.00000000E+00  0.00000000E+00  0.00000000E+00
  0.00000000E+00  0.00000000E+00  0.00000000E+00
  0.00000000E+00  0.00000000E+00  0.00000000E+00
  0.00000000E+00  0.00000000E+00  0.00000000E+00
  0.00000000E+00  0.00000000E+00  0.00000000E+00
  0.00000000E+00  0.00000000E+00  0.00000000E+00
  0.00000000E+00  0.00000000E+00  0.00000000E+00
