crystal structure from VMoWS2 with Hexag
   1.00000000000000     
     8.3061552716156619    4.8195642987026446    0.0000000000000000
    -8.2873803616754689    4.7870569219547674    0.0000000000000000
     0.0000000000000000    0.0000000000000000   30.0000000000000000
   V    Mo   W    S 
     3     3     3    18
Direct
  0.3681284985738993  0.6849269649461003 -0.0021538899529767
  0.9670538443109259  0.3167384870687993  0.0019841880118680
  0.3682505990453994  0.3499999380600995 -0.0021196741666845
  0.6662430423474015  0.0043265589875788 -0.0001972145732306
  0.6662868325971942  0.3268495096740981 -0.0002015615303348
  0.6756676719672485  0.6728054694595291 -0.0002961141842266
 -0.0390769954630561 -0.0213735503444707  0.0025188757349162
 -0.0393953777359555  0.6488881230689283  0.0025564663727906
  0.3732423527610810  0.0197676383813691 -0.0022076437362862
  0.1108371244855500  0.2233096071000228  0.9573794141474000
  0.2232115022432806  0.1129369456589367  0.0435596680700575
  0.1107182564978172  0.5541123729890562  0.9574526936990999
  0.2237435252135281  0.4451978001658987  0.0416820868817096
  0.1117186275015144  0.8891086357343984  0.9557595816817556
  0.2231056310856171  0.7767746168822213  0.0435897220934924
  0.4476084927723148  0.2266100641280049  0.9442016664241695
  0.5602947185560599  0.1132804766662668  0.0554426192125280
  0.4436250031318157  0.5552666134113768  0.9465829735322023
  0.5531522903653885  0.4430111370882012  0.0523347351141989
  0.4474702508809035  0.8873113289878044  0.9441704708788550
  0.5527098463640528  0.7765630133095570  0.0525895406757197
  0.7824983815090525  0.2244040110203648  0.9459474920474835
  0.8874143860074541  0.1143253914581592  0.0554520806810007
  0.7725014151405795  0.5519660688227923  0.9452968658263152
  0.8872293092039735  0.4395302433817818  0.0554327415515668
  0.7731090955154633  0.8876541992405240  0.9450034866271925
  0.8808661285584712  0.7739227881301749  0.0582386280794098
 
  0.00000000E+00  0.00000000E+00  0.00000000E+00
  0.00000000E+00  0.00000000E+00  0.00000000E+00
  0.00000000E+00  0.00000000E+00  0.00000000E+00
  0.00000000E+00  0.00000000E+00  0.00000000E+00
  0.00000000E+00  0.00000000E+00  0.00000000E+00
  0.00000000E+00  0.00000000E+00  0.00000000E+00
  0.00000000E+00  0.00000000E+00  0.00000000E+00
  0.00000000E+00  0.00000000E+00  0.00000000E+00
  0.00000000E+00  0.00000000E+00  0.00000000E+00
  0.00000000E+00  0.00000000E+00  0.00000000E+00
  0.00000000E+00  0.00000000E+00  0.00000000E+00
  0.00000000E+00  0.00000000E+00  0.00000000E+00
  0.00000000E+00  0.00000000E+00  0.00000000E+00
  0.00000000E+00  0.00000000E+00  0.00000000E+00
  0.00000000E+00  0.00000000E+00  0.00000000E+00
  0.00000000E+00  0.00000000E+00  0.00000000E+00
  0.00000000E+00  0.00000000E+00  0.00000000E+00
  0.00000000E+00  0.00000000E+00  0.00000000E+00
  0.00000000E+00  0.00000000E+00  0.00000000E+00
  0.00000000E+00  0.00000000E+00  0.00000000E+00
  0.00000000E+00  0.00000000E+00  0.00000000E+00
  0.00000000E+00  0.00000000E+00  0.00000000E+00
  0.00000000E+00  0.00000000E+00  0.00000000E+00
  0.00000000E+00  0.00000000E+00  0.00000000E+00
  0.00000000E+00  0.00000000E+00  0.00000000E+00
  0.00000000E+00  0.00000000E+00  0.00000000E+00
  0.00000000E+00  0.00000000E+00  0.00000000E+00
