crystal structure from VMoWS2 with Hexag
   1.00000000000000     
     8.3620126484843400    4.8376725173843775    0.0000000000000000
    -8.3400459551897672    4.7996830727154416    0.0000000000000000
     0.0000000000000000    0.0000000000000000   30.0000000000000000
   V    Mo   W    S 
     3     3     3    18
Direct
  0.6720917025944050  0.6371166402190441  0.0011796881493623
  0.0270964103740702  0.0090131868482566 -0.0002187378585596
  1.0348021141626955  0.3500411702905067 -0.0013121741108452
  0.3345634591717693  0.0026642135668502  0.0001124604244552
  0.6317650433676683  0.3139169484525540  0.0002159192373258
  0.3424989193906713  0.3158177411305954  0.0005882687396117
  0.0225802684156277  0.6802930444885236  0.0001719674699612
  0.3176027280097212  0.6865923875206691 -0.0004677447234060
  0.6333893411046636  0.0025665070953539 -0.0003072472451463
  0.1133752624845336  0.2207634320728547  0.9486217539288219
  0.2173170807290061  0.1098790912985341  0.0547699098754881
  0.1101747924472031  0.5538494309656852  0.9454414455290525
  0.2302091623048259  0.4518881087892694  0.0494246897478876
  0.1053818237879817  0.8896175982739459  0.9465174495344187
  0.2211347824246775  0.7842707894692373  0.0565339801856201
  0.4371615447905735  0.2149713706806518  0.9433508662250496
  0.5478055007633448  0.1110018587999234  0.0567589260089409
  0.4480676999241397  0.5620160382997934  0.9559946021714281
  0.5563572003799819  0.4438920537112205  0.0555231271158435
  0.4366170184817332  0.8891452334052238  0.9433240912678617
  0.5554367982094939  0.7756363927839489  0.0474250070592386
  0.7815057938419629  0.2252067930668278  0.9518868654929726
  0.8896596336801791  0.1142561798941155  0.0427603790818067
  0.7773971389190354  0.5488909572877356  0.9500643875683564
  0.8874910215381446  0.4372833596705948  0.0434543965170615
  0.7762903590228851  0.8865883263602370  0.9589448051163433
  0.8904418531159862  0.7810355990354200  0.0492408166910416
 
  0.00000000E+00  0.00000000E+00  0.00000000E+00
  0.00000000E+00  0.00000000E+00  0.00000000E+00
  0.00000000E+00  0.00000000E+00  0.00000000E+00
  0.00000000E+00  0.00000000E+00  0.00000000E+00
  0.00000000E+00  0.00000000E+00  0.00000000E+00
  0.00000000E+00  0.00000000E+00  0.00000000E+00
  0.00000000E+00  0.00000000E+00  0.00000000E+00
  0.00000000E+00  0.00000000E+00  0.00000000E+00
  0.00000000E+00  0.00000000E+00  0.00000000E+00
  0.00000000E+00  0.00000000E+00  0.00000000E+00
  0.00000000E+00  0.00000000E+00  0.00000000E+00
  0.00000000E+00  0.00000000E+00  0.00000000E+00
  0.00000000E+00  0.00000000E+00  0.00000000E+00
  0.00000000E+00  0.00000000E+00  0.00000000E+00
  0.00000000E+00  0.00000000E+00  0.00000000E+00
  0.00000000E+00  0.00000000E+00  0.00000000E+00
  0.00000000E+00  0.00000000E+00  0.00000000E+00
  0.00000000E+00  0.00000000E+00  0.00000000E+00
  0.00000000E+00  0.00000000E+00  0.00000000E+00
  0.00000000E+00  0.00000000E+00  0.00000000E+00
  0.00000000E+00  0.00000000E+00  0.00000000E+00
  0.00000000E+00  0.00000000E+00  0.00000000E+00
  0.00000000E+00  0.00000000E+00  0.00000000E+00
  0.00000000E+00  0.00000000E+00  0.00000000E+00
  0.00000000E+00  0.00000000E+00  0.00000000E+00
  0.00000000E+00  0.00000000E+00  0.00000000E+00
  0.00000000E+00  0.00000000E+00  0.00000000E+00
