crystal structure from VMoWS2 with Hexag
   1.00000000000000     
     8.3917057601996294    4.8385278094034758    0.0000000000000000
    -8.3796958431409223    4.8175815064618703    0.0000000000000000
     0.0000000000000000    0.0000000000000000   30.0000000000000000
   V    Mo   W    S 
     3     3     3    18
Direct
  0.6535486632608399  0.6858263627262670 -0.0009666790979937
  0.0341112672075682  0.6870870638509351 -0.0016283626776310
 -0.0211295662242315  0.0025487131112564  0.0000053662745080
  0.6659722475156193  0.0067263940151397  0.0001777780685285
  0.3538345479863431  0.0022620730577268  0.0000003551231732
  0.9592222327400793  0.3115713186293364  0.0004602182822348
  0.3495170394180855  0.3090872737544306  0.0014486350821857
  0.3506003209594013  0.7013757450297795  0.0003184725952152
  0.6518092866696014  0.3019303013204538 -0.0005904267912695
  0.1089514656067146  0.2198738942938421  0.9525327464389565
  0.2146114924412539  0.0987390713437806  0.0500719798614488
  0.1134980322230365  0.5566218370934289  0.9516516566976606
  0.2216581171182037  0.4416366386995055  0.0408362958696054
  0.1113558013829985  0.8948359571413738  0.9523293853557490
  0.2229557416553079  0.7786020213666675  0.0541697785776144
  0.4452639536903262  0.2173621355653616  0.9436806525374173
  0.5577956271431871  0.1078144860993940  0.0569816438857014
  0.4442419281068221  0.5548356529318407  0.9517270122645100
  0.5632536126876287  0.4487660784899217  0.0492283242607608
  0.4494901487024750  0.8918488777396306  0.9435816542214726
  0.5577434818460189  0.7789829186329534  0.0540736474561088
  0.7708287302629024  0.2178028240217779  0.9430527914006812
  0.8870759566617965  0.1068495751738781  0.0536796014941498
  0.7811903141069578  0.5597905008057585  0.9595504243945370
  0.8850556855237312  0.4486934293354083  0.0496925178452134
  0.7788086978030754  0.8888415760745617  0.9484768753606544
  0.8869496269412307  0.7779017331731379  0.0454575544187946
 
  0.00000000E+00  0.00000000E+00  0.00000000E+00
  0.00000000E+00  0.00000000E+00  0.00000000E+00
  0.00000000E+00  0.00000000E+00  0.00000000E+00
  0.00000000E+00  0.00000000E+00  0.00000000E+00
  0.00000000E+00  0.00000000E+00  0.00000000E+00
  0.00000000E+00  0.00000000E+00  0.00000000E+00
  0.00000000E+00  0.00000000E+00  0.00000000E+00
  0.00000000E+00  0.00000000E+00  0.00000000E+00
  0.00000000E+00  0.00000000E+00  0.00000000E+00
  0.00000000E+00  0.00000000E+00  0.00000000E+00
  0.00000000E+00  0.00000000E+00  0.00000000E+00
  0.00000000E+00  0.00000000E+00  0.00000000E+00
  0.00000000E+00  0.00000000E+00  0.00000000E+00
  0.00000000E+00  0.00000000E+00  0.00000000E+00
  0.00000000E+00  0.00000000E+00  0.00000000E+00
  0.00000000E+00  0.00000000E+00  0.00000000E+00
  0.00000000E+00  0.00000000E+00  0.00000000E+00
  0.00000000E+00  0.00000000E+00  0.00000000E+00
  0.00000000E+00  0.00000000E+00  0.00000000E+00
  0.00000000E+00  0.00000000E+00  0.00000000E+00
  0.00000000E+00  0.00000000E+00  0.00000000E+00
  0.00000000E+00  0.00000000E+00  0.00000000E+00
  0.00000000E+00  0.00000000E+00  0.00000000E+00
  0.00000000E+00  0.00000000E+00  0.00000000E+00
  0.00000000E+00  0.00000000E+00  0.00000000E+00
  0.00000000E+00  0.00000000E+00  0.00000000E+00
  0.00000000E+00  0.00000000E+00  0.00000000E+00
