crystal structure from VMoWS2 with Hexag
   1.00000000000000     
     8.3356979789549381    4.7930856471153938    0.0000000000000000
    -8.3409322200663318    4.8022317588782446    0.0000000000000000
     0.0000000000000000    0.0000000000000000   30.0000000000000000
   V    Mo   W    S 
     3     3     3    18
Direct
  1.0198709271629123  0.3143945411463703  0.0028017793326837
  0.6507163935071471  0.3497754664461024 -0.0016415950143183
  0.3140528479028711  0.0207037366569262 -0.0027258524145634
  0.6658940692666562  0.6710099289656074 -0.0002574595393386
  0.3503934853495675  0.3542311687625140 -0.0001164346526660
 -0.0200514020984069 -0.0203946795147625 -0.0000758944904693
 -0.0208182256584647  0.6816058355815585 -0.0014482933431381
  0.3554305798280568  0.6521750756630685  0.0018157728121926
  0.6813044188777642 -0.0203736632320914  0.0015503052660688
  0.1127063674867418  0.2202260150168993  0.9496812926813261
  0.2200847632404035  0.1135707106394898  0.0499986114734980
  0.1092965396503076  0.5513550381467626  0.9572743362259865
  0.2235464116540725  0.4426903353625768  0.0556195660506163
  0.1102276223517891  0.8914722564128392  0.9447818166401324
  0.2250591725564414  0.7827504105174685  0.0429718677240440
  0.4468132019701721  0.2253136047540679  0.9462107922146006
  0.5522107487774983  0.1112392174586615  0.0422968096921238
  0.4486556269562081  0.5570021962984676  0.9436606014189248
  0.5594958923945416  0.4445146155261896  0.0538370448467159
  0.4421526513162585  0.8907588623291502  0.9551299620992629
  0.5571285093414230  0.7763686927026693  0.0573729917875260
  0.7814991893904796  0.2247649553311833  0.9577679178878195
  0.8912763249776882  0.1106581303310899  0.0551684228460224
  0.7734146052156778  0.5511738858557798  0.9450657938864224
  0.8874857119900623  0.4404560295755333  0.0436946402846805
  0.7767543329446884  0.8848413794388299  0.9434453341682358
  0.8836136870844236  0.7759307073046201  0.0561197693155986
 
  0.00000000E+00  0.00000000E+00  0.00000000E+00
  0.00000000E+00  0.00000000E+00  0.00000000E+00
  0.00000000E+00  0.00000000E+00  0.00000000E+00
  0.00000000E+00  0.00000000E+00  0.00000000E+00
  0.00000000E+00  0.00000000E+00  0.00000000E+00
  0.00000000E+00  0.00000000E+00  0.00000000E+00
  0.00000000E+00  0.00000000E+00  0.00000000E+00
  0.00000000E+00  0.00000000E+00  0.00000000E+00
  0.00000000E+00  0.00000000E+00  0.00000000E+00
  0.00000000E+00  0.00000000E+00  0.00000000E+00
  0.00000000E+00  0.00000000E+00  0.00000000E+00
  0.00000000E+00  0.00000000E+00  0.00000000E+00
  0.00000000E+00  0.00000000E+00  0.00000000E+00
  0.00000000E+00  0.00000000E+00  0.00000000E+00
  0.00000000E+00  0.00000000E+00  0.00000000E+00
  0.00000000E+00  0.00000000E+00  0.00000000E+00
  0.00000000E+00  0.00000000E+00  0.00000000E+00
  0.00000000E+00  0.00000000E+00  0.00000000E+00
  0.00000000E+00  0.00000000E+00  0.00000000E+00
  0.00000000E+00  0.00000000E+00  0.00000000E+00
  0.00000000E+00  0.00000000E+00  0.00000000E+00
  0.00000000E+00  0.00000000E+00  0.00000000E+00
  0.00000000E+00  0.00000000E+00  0.00000000E+00
  0.00000000E+00  0.00000000E+00  0.00000000E+00
  0.00000000E+00  0.00000000E+00  0.00000000E+00
  0.00000000E+00  0.00000000E+00  0.00000000E+00
  0.00000000E+00  0.00000000E+00  0.00000000E+00
