crystal structure from VMoWS2 with Hexag
   1.00000000000000     
     8.2808415093742109    4.7737518168026281    0.0000000000000000
    -8.2961371692412058    4.8002733007361558    0.0000000000000000
     0.0000000000000000    0.0000000000000000   30.0000000000000000
   V    Mo   W    S 
     3     3     3    18
Direct
  0.6714565083799000  0.3425291738371372 -0.0002617836374760
  0.3258501361697432 -0.0048540963908129 -0.0005793146177401
  0.6743481099530396  0.0002917789977365 -0.0004017732317693
  1.0204489172853048  0.3460484454057392  0.0004665667051807
  0.6577898598263682  0.6599328794289733 -0.0001200841014531
  0.3307818310788844  0.3539922382972401  0.0003136111236615
 -0.0038642924676378 -0.0006339658982488  0.0002870955039764
 -0.0021856525701495  0.6603927023841520  0.0001056500128266
  0.3255446429633929  0.6433287297574439  0.0000385563620017
  0.1125317305781348  0.2226530924247553  0.9470191310751007
  0.2256726163891049  0.1116096040395099  0.0496596976045950
  0.1127888777469862  0.5569587424641902  0.9457979136762906
  0.2232360820111939  0.4461872589279802  0.0578342573311862
  0.1126656590811510  0.8888529818901171  0.9485622173522893
  0.2251780330674140  0.7794783655559385  0.0502180768241983
  0.4447054604134907  0.2224675474826487  0.9525572519880977
  0.5555932448950973  0.1109461839611533  0.0470922394709498
  0.4445268447859727  0.5574073806820050  0.9442813476593541
  0.5562010655885385  0.4400461006611802  0.0519218124900925
  0.4451907426066532  0.8884897476561977  0.9523251702057888
  0.5545562900808249  0.7815189185261766  0.0507658549066561
  0.7778942593951591  0.2225969031415649  0.9519192658941763
  0.8847798399586728  0.1101546633364272  0.0512988278843316
  0.7754068584925513  0.5497714545906429  0.9476248575333507
  0.8839543218347590  0.4408328022626293  0.0517441281988422
  0.7754394184722788  0.8912047256408644  0.9480135901653651
  0.8877230474201524  0.7760100944142321  0.0515157348201176
 
  0.00000000E+00  0.00000000E+00  0.00000000E+00
  0.00000000E+00  0.00000000E+00  0.00000000E+00
  0.00000000E+00  0.00000000E+00  0.00000000E+00
  0.00000000E+00  0.00000000E+00  0.00000000E+00
  0.00000000E+00  0.00000000E+00  0.00000000E+00
  0.00000000E+00  0.00000000E+00  0.00000000E+00
  0.00000000E+00  0.00000000E+00  0.00000000E+00
  0.00000000E+00  0.00000000E+00  0.00000000E+00
  0.00000000E+00  0.00000000E+00  0.00000000E+00
  0.00000000E+00  0.00000000E+00  0.00000000E+00
  0.00000000E+00  0.00000000E+00  0.00000000E+00
  0.00000000E+00  0.00000000E+00  0.00000000E+00
  0.00000000E+00  0.00000000E+00  0.00000000E+00
  0.00000000E+00  0.00000000E+00  0.00000000E+00
  0.00000000E+00  0.00000000E+00  0.00000000E+00
  0.00000000E+00  0.00000000E+00  0.00000000E+00
  0.00000000E+00  0.00000000E+00  0.00000000E+00
  0.00000000E+00  0.00000000E+00  0.00000000E+00
  0.00000000E+00  0.00000000E+00  0.00000000E+00
  0.00000000E+00  0.00000000E+00  0.00000000E+00
  0.00000000E+00  0.00000000E+00  0.00000000E+00
  0.00000000E+00  0.00000000E+00  0.00000000E+00
  0.00000000E+00  0.00000000E+00  0.00000000E+00
  0.00000000E+00  0.00000000E+00  0.00000000E+00
  0.00000000E+00  0.00000000E+00  0.00000000E+00
  0.00000000E+00  0.00000000E+00  0.00000000E+00
  0.00000000E+00  0.00000000E+00  0.00000000E+00
