crystal structure from VMoWS2 with Hexag
   1.00000000000000     
     8.3601360515814402    4.8362702062683809    0.0000000000000000
    -8.3397161228241110    4.8009583598649916    0.0000000000000000
     0.0000000000000000    0.0000000000000000   30.0000000000000000
   V    Mo   W    S 
     3     3     3    18
Direct
  0.7017988755522598  0.6828629335775570 -0.0013447101687925
  0.6938665543112728  0.3423657927614634 -0.0002140228838742
  0.3389497495206826 -0.0296159790817499  0.0012526978732757
  1.0009382202020662  0.3359149872061951  0.0001171102049826
  0.2982683398228643  0.6471086247160942  0.0002232499197722
  0.0089719664943364  0.6491023607558589  0.0006297880027155
 -0.0155949616213137  0.0202400029299770 -0.0004863090879921
  0.2999416010232473  0.3359438203870583 -0.0003317032334314
  0.6892134389548099  0.0139412626643222  0.0001425001357712
  0.1031473062654082  0.2226010922882132  0.9432997408627951
  0.2221958116493313  0.1090622486157546  0.0474083862882682
  0.1036740627422947  0.5483315767023160  0.9433697394600203
  0.2143082241360942  0.4442141783148220  0.0567455522408005
  0.1148979919673445  0.8955017643624320  0.9561007034931378
  0.2230165754457163  0.7771262094909107  0.0555616791140351
  0.4429701760661919  0.2198897801526618  0.9590174130697298
  0.5572707841201880  0.1145180311468729  0.0492914219485481
  0.4482070482342267  0.5585258717023984  0.9518950886847042
  0.5563411292336625  0.4475429570109123  0.0427221658369265
  0.4439935881059700  0.8821361186275155  0.9500624169923212
  0.5542558016360093  0.7705582435666101  0.0432864898343311
  0.7718855087888049  0.2229665567586294  0.9464418445489960
  0.8877034811910901  0.1175844502971072  0.0565328483233472
  0.7801546262674325  0.5538804194701490  0.9485175704705064
  0.8838309022388112  0.4432108954589079  0.0548369991790481
  0.7769668199503608  0.8872750182491161  0.9454818970466011
  0.8970408311378202  0.7854252353454635  0.0494393410434473
 
  0.00000000E+00  0.00000000E+00  0.00000000E+00
  0.00000000E+00  0.00000000E+00  0.00000000E+00
  0.00000000E+00  0.00000000E+00  0.00000000E+00
  0.00000000E+00  0.00000000E+00  0.00000000E+00
  0.00000000E+00  0.00000000E+00  0.00000000E+00
  0.00000000E+00  0.00000000E+00  0.00000000E+00
  0.00000000E+00  0.00000000E+00  0.00000000E+00
  0.00000000E+00  0.00000000E+00  0.00000000E+00
  0.00000000E+00  0.00000000E+00  0.00000000E+00
  0.00000000E+00  0.00000000E+00  0.00000000E+00
  0.00000000E+00  0.00000000E+00  0.00000000E+00
  0.00000000E+00  0.00000000E+00  0.00000000E+00
  0.00000000E+00  0.00000000E+00  0.00000000E+00
  0.00000000E+00  0.00000000E+00  0.00000000E+00
  0.00000000E+00  0.00000000E+00  0.00000000E+00
  0.00000000E+00  0.00000000E+00  0.00000000E+00
  0.00000000E+00  0.00000000E+00  0.00000000E+00
  0.00000000E+00  0.00000000E+00  0.00000000E+00
  0.00000000E+00  0.00000000E+00  0.00000000E+00
  0.00000000E+00  0.00000000E+00  0.00000000E+00
  0.00000000E+00  0.00000000E+00  0.00000000E+00
  0.00000000E+00  0.00000000E+00  0.00000000E+00
  0.00000000E+00  0.00000000E+00  0.00000000E+00
  0.00000000E+00  0.00000000E+00  0.00000000E+00
  0.00000000E+00  0.00000000E+00  0.00000000E+00
  0.00000000E+00  0.00000000E+00  0.00000000E+00
  0.00000000E+00  0.00000000E+00  0.00000000E+00
