crystal structure from VMoWS2 with Hexag
   1.00000000000000     
     8.3895500762680815    4.8138647827050409    0.0000000000000000
    -8.3890115236295930    4.8130083263183359    0.0000000000000000
     0.0000000000000000    0.0000000000000000   30.0000000000000000
   V    Mo   W    S 
     3     3     3    18
Direct
  0.3433837369988690  0.3211004683080341  0.0000000888706417
  0.3204884988882797  0.6903092030413265 -0.0020941033126629
  0.6397346955166616  0.0140465990431289 -0.0021521867437744
  0.3281284758987912  0.0043564180025127 -0.0009688083864159
  0.6337947185702095  0.3241660387846296 -0.0009577581792606
  0.6871699851036529  0.6480095138622797  0.0029300781466525
  0.0148224647975277 -0.0100576284337284  0.0002396150815255
  1.0224023266805713  0.3114108404346289  0.0043426585279772
  0.0070196097547854  0.6955384335034316 -0.0007968446414724
  0.1221549785126571  0.2200281305571422  0.9480043833956336
  0.2245026922877129  0.1183979746256373  0.0539079930180026
  0.1096662486097298  0.5503437066224188  0.9520752850937749
  0.2397761470851142  0.4552845471142141  0.0488318592797820
  0.1116571621491468  0.8896047462832661  0.9424853427946850
  0.2216366061892587  0.7816667450274881  0.0525058904905187
  0.4376912122984640  0.2239235575331612  0.9438062831636900
  0.5500249545039115  0.1112335222855613  0.0526817710104103
  0.4443195695781557  0.5600723670182129  0.9577024183701186
  0.5481685001277036  0.4386054329189273  0.0553029343882490
  0.4410036595473726  0.8919372469077774  0.9462260863486540
  0.5535192791982472  0.7800904867302841  0.0427319688229303
  0.7801510505790699  0.2215448463302440  0.9518059489310714
  0.8746882487682711  0.0940588666285025  0.0493724572674182
  0.7825068917191118  0.5502236426928865  0.9466943645762448
  0.8916731828002419  0.4414175383562092  0.0414047328155416
  0.7720471879193843  0.8909421976276188  0.9570118738960151
  0.8960823693540571  0.7799590116717821  0.0569055661740461
 
  0.00000000E+00  0.00000000E+00  0.00000000E+00
  0.00000000E+00  0.00000000E+00  0.00000000E+00
  0.00000000E+00  0.00000000E+00  0.00000000E+00
  0.00000000E+00  0.00000000E+00  0.00000000E+00
  0.00000000E+00  0.00000000E+00  0.00000000E+00
  0.00000000E+00  0.00000000E+00  0.00000000E+00
  0.00000000E+00  0.00000000E+00  0.00000000E+00
  0.00000000E+00  0.00000000E+00  0.00000000E+00
  0.00000000E+00  0.00000000E+00  0.00000000E+00
  0.00000000E+00  0.00000000E+00  0.00000000E+00
  0.00000000E+00  0.00000000E+00  0.00000000E+00
  0.00000000E+00  0.00000000E+00  0.00000000E+00
  0.00000000E+00  0.00000000E+00  0.00000000E+00
  0.00000000E+00  0.00000000E+00  0.00000000E+00
  0.00000000E+00  0.00000000E+00  0.00000000E+00
  0.00000000E+00  0.00000000E+00  0.00000000E+00
  0.00000000E+00  0.00000000E+00  0.00000000E+00
  0.00000000E+00  0.00000000E+00  0.00000000E+00
  0.00000000E+00  0.00000000E+00  0.00000000E+00
  0.00000000E+00  0.00000000E+00  0.00000000E+00
  0.00000000E+00  0.00000000E+00  0.00000000E+00
  0.00000000E+00  0.00000000E+00  0.00000000E+00
  0.00000000E+00  0.00000000E+00  0.00000000E+00
  0.00000000E+00  0.00000000E+00  0.00000000E+00
  0.00000000E+00  0.00000000E+00  0.00000000E+00
  0.00000000E+00  0.00000000E+00  0.00000000E+00
  0.00000000E+00  0.00000000E+00  0.00000000E+00
