crystal structure from VMoWS2 with Hexag
   1.00000000000000     
     8.3088751168434953    4.8225920585197288    0.0000000000000000
    -8.2887816432719390    4.7878022695632252    0.0000000000000000
     0.0000000000000000    0.0000000000000000   30.0000000000000000
   V    Mo   W    S 
     3     3     3    18
Direct
  1.0323772487226548  0.3495442603768851 -0.0017890640514657
  0.6318585831038416  0.3164938556443717  0.0019285936599185
  0.6318860610406001 -0.0182741338225604  0.0019840582631085
  0.3335519238975065  0.6617660443844098  0.0001990354855821
  0.3243404024502255 -0.0060588802234492  0.0003208871683568
  0.3334578190756622  0.3398964561451590  0.0002085653560599
  0.0392720187889355  0.0175723514314492 -0.0024438789276126
  0.0389832227346823  0.6880755681594191 -0.0024123303197212
  0.6266412112041569  0.6467862502172884  0.0021139802729045
  0.1122154092744772  0.2268975868101585  0.9447357133036759
  0.2276367413989827  0.1147614964944971  0.0547318406697847
  0.1120292772817072  0.5518981740458337  0.9447309253465982
  0.2174823640200921  0.4421860139639172  0.0541182444422959
  0.1191071181967800  0.8927037453096773  0.9418673158674857
  0.2270731662047145  0.7790216144463369  0.0549992841079029
  0.4464826233232715  0.2235239270178734  0.9476446160468992
  0.5566768528720279  0.1114967644587548  0.0532638991563571
  0.4393627114422805  0.5531206222498143  0.9445120581251991
  0.5524333057020890  0.4399092528964164  0.0556228226185789
  0.4468492409378697  0.8897058556623914  0.9474051752472025
  0.5525154201771380  0.7793420679613566  0.0556821175010050
  0.7761264446669439  0.2212902050730453  0.9581646139074903
  0.8889733895915090  0.1121823443199698  0.0426281883064634
  0.7769300180918446  0.5538470614153937  0.9564177471033470
  0.8889335190312642  0.4433379288671410  0.0426952352532314
  0.7770029896826252  0.8898135718030598  0.9563819618561312
  0.8880153705230940  0.7773744483689630  0.0442882934332136
 
  0.00000000E+00  0.00000000E+00  0.00000000E+00
  0.00000000E+00  0.00000000E+00  0.00000000E+00
  0.00000000E+00  0.00000000E+00  0.00000000E+00
  0.00000000E+00  0.00000000E+00  0.00000000E+00
  0.00000000E+00  0.00000000E+00  0.00000000E+00
  0.00000000E+00  0.00000000E+00  0.00000000E+00
  0.00000000E+00  0.00000000E+00  0.00000000E+00
  0.00000000E+00  0.00000000E+00  0.00000000E+00
  0.00000000E+00  0.00000000E+00  0.00000000E+00
  0.00000000E+00  0.00000000E+00  0.00000000E+00
  0.00000000E+00  0.00000000E+00  0.00000000E+00
  0.00000000E+00  0.00000000E+00  0.00000000E+00
  0.00000000E+00  0.00000000E+00  0.00000000E+00
  0.00000000E+00  0.00000000E+00  0.00000000E+00
  0.00000000E+00  0.00000000E+00  0.00000000E+00
  0.00000000E+00  0.00000000E+00  0.00000000E+00
  0.00000000E+00  0.00000000E+00  0.00000000E+00
  0.00000000E+00  0.00000000E+00  0.00000000E+00
  0.00000000E+00  0.00000000E+00  0.00000000E+00
  0.00000000E+00  0.00000000E+00  0.00000000E+00
  0.00000000E+00  0.00000000E+00  0.00000000E+00
  0.00000000E+00  0.00000000E+00  0.00000000E+00
  0.00000000E+00  0.00000000E+00  0.00000000E+00
  0.00000000E+00  0.00000000E+00  0.00000000E+00
  0.00000000E+00  0.00000000E+00  0.00000000E+00
  0.00000000E+00  0.00000000E+00  0.00000000E+00
  0.00000000E+00  0.00000000E+00  0.00000000E+00
