crystal structure from VMoWS2 with Hexag
   1.00000000000000     
     8.3214187869914316    4.8257433575457132    0.0000000000000000
    -8.3085088314266837    4.8033425150921332    0.0000000000000000
     0.0000000000000000    0.0000000000000000   30.0000000000000000
   V    Mo   W    S 
     3     3     3    18
Direct
  0.6280014844675812 -0.0189013202606986  0.0024902556275826
  0.0324982328333700  0.0164971994617163 -0.0015006174376447
  0.0396685163097173  0.6871666452117717 -0.0024228098890567
  0.3382219293056177  0.3375939368824835 -0.0002550077018327
  0.3331704342882891  0.6465105150674981 -0.0000941712506233
  0.3372327701124844  0.0209518335570073 -0.0001286700065466
  1.0358918697541153  0.3486873254146455 -0.0013880163649993
  0.6297764087039440  0.3184975978829133  0.0017484830490739
  0.6313389918428379  0.6462480699461112  0.0014697978646569
  0.1106662777669734  0.2177480477837839  0.9451624660039191
  0.2187932989448105  0.1113781111689104  0.0539212441508327
  0.1144615176246334  0.5585325467924424  0.9449372720665165
  0.2259872876707756  0.4429782057560043  0.0561396625103721
  0.1114215206531185  0.8914866044203985  0.9464054064849086
  0.2272423134155333  0.7805224473509008  0.0500852622042591
  0.4412103705857589  0.2235161484750745  0.9436123729234184
  0.5526891588946624  0.1089165918236835  0.0554302939401851
  0.4409110478561278  0.5511959222787812  0.9433891333699697
  0.5524996775562830  0.4429338126668848  0.0572659265693439
  0.4404332062543564  0.8868253170678484  0.9495481150174070
  0.5530758106110346  0.7778984203029494  0.0549950960489893
  0.7756674685944704  0.2183681409337385  0.9572221401689746
  0.8862946418210598  0.1072432369390881  0.0436146584370920
  0.7817416146946103  0.5572515902331331  0.9552175604334204
  0.8905580001387604  0.4489886805690212  0.0430698433281221
  0.7769149703544829  0.8913214869443937  0.9577181700445637
  0.8918456323815712  0.7778573388070857  0.0423460316070863
 
  0.00000000E+00  0.00000000E+00  0.00000000E+00
  0.00000000E+00  0.00000000E+00  0.00000000E+00
  0.00000000E+00  0.00000000E+00  0.00000000E+00
  0.00000000E+00  0.00000000E+00  0.00000000E+00
  0.00000000E+00  0.00000000E+00  0.00000000E+00
  0.00000000E+00  0.00000000E+00  0.00000000E+00
  0.00000000E+00  0.00000000E+00  0.00000000E+00
  0.00000000E+00  0.00000000E+00  0.00000000E+00
  0.00000000E+00  0.00000000E+00  0.00000000E+00
  0.00000000E+00  0.00000000E+00  0.00000000E+00
  0.00000000E+00  0.00000000E+00  0.00000000E+00
  0.00000000E+00  0.00000000E+00  0.00000000E+00
  0.00000000E+00  0.00000000E+00  0.00000000E+00
  0.00000000E+00  0.00000000E+00  0.00000000E+00
  0.00000000E+00  0.00000000E+00  0.00000000E+00
  0.00000000E+00  0.00000000E+00  0.00000000E+00
  0.00000000E+00  0.00000000E+00  0.00000000E+00
  0.00000000E+00  0.00000000E+00  0.00000000E+00
  0.00000000E+00  0.00000000E+00  0.00000000E+00
  0.00000000E+00  0.00000000E+00  0.00000000E+00
  0.00000000E+00  0.00000000E+00  0.00000000E+00
  0.00000000E+00  0.00000000E+00  0.00000000E+00
  0.00000000E+00  0.00000000E+00  0.00000000E+00
  0.00000000E+00  0.00000000E+00  0.00000000E+00
  0.00000000E+00  0.00000000E+00  0.00000000E+00
  0.00000000E+00  0.00000000E+00  0.00000000E+00
  0.00000000E+00  0.00000000E+00  0.00000000E+00
