crystal structure from VMoWS2 with Hexag
   1.00000000000000     
     8.4056434622378831    4.8056226439468936    0.0000000000000000
    -8.3970911439474598    4.7906182794117198    0.0000000000000000
     0.0000000000000000    0.0000000000000000   30.0000000000000000
   V    Mo   W    S 
     3     3     3    18
Direct
  0.3466366313993848  0.6864143134584474 -0.0002837074319430
  0.0229053239713611 -0.0152773038558564  0.0013977227413444
  0.3248817763083128  0.3289402234260916  0.0008262865618344
  0.9668065466835960  0.3303740170170354 -0.0011993909616227
  0.3393918297533300 -0.0038759924762390  0.0002604382634678
  0.6516660392821102  0.0074701667957803 -0.0000794844152968
  0.0351840425111545  0.6766848672191583  0.0002195997625956
  0.6613530999559613  0.3021717205278986  0.0007232633740082
  0.6466868400020951  0.6876688821689535 -0.0016798592014472
  0.1097533092266566  0.2151571961851373  0.9530838577352503
  0.2257871580140773  0.1139552924067920  0.0510380719132378
  0.1198244520801249  0.5541555014367900  0.9481443934908411
  0.2168761840069520  0.4441039770948329  0.0448059170494874
  0.1163027911745589  0.8876973406888004  0.9469050287362207
  0.2331061344651532  0.7774001406183870  0.0550743825534282
  0.4447070316146590  0.2247394632656168  0.9494426052593752
  0.5531178963983137  0.1096756482053022  0.0573132891829512
  0.4349704785971003  0.5556111096454415  0.9492236137149371
  0.5544720063295310  0.4464790101478787  0.0459070265907378
  0.4415848433480445  0.8840711579962250  0.9454528207265256
  0.5476297943528120  0.7804630707299151  0.0542205919629302
  0.7668993452900420  0.2160593582909069  0.9425542300205436
  0.8932513287392186  0.1041429937874198  0.0456372389324843
  0.7773691480418221  0.5579643278222619  0.9587040201508933
  0.8847173174064158  0.4475265412271489  0.0530213818280358
  0.7897583881858967  0.9015641201572090  0.9507020809832121
  0.8925747162983128  0.7768773094902421  0.0485844796759528
 
  0.00000000E+00  0.00000000E+00  0.00000000E+00
  0.00000000E+00  0.00000000E+00  0.00000000E+00
  0.00000000E+00  0.00000000E+00  0.00000000E+00
  0.00000000E+00  0.00000000E+00  0.00000000E+00
  0.00000000E+00  0.00000000E+00  0.00000000E+00
  0.00000000E+00  0.00000000E+00  0.00000000E+00
  0.00000000E+00  0.00000000E+00  0.00000000E+00
  0.00000000E+00  0.00000000E+00  0.00000000E+00
  0.00000000E+00  0.00000000E+00  0.00000000E+00
  0.00000000E+00  0.00000000E+00  0.00000000E+00
  0.00000000E+00  0.00000000E+00  0.00000000E+00
  0.00000000E+00  0.00000000E+00  0.00000000E+00
  0.00000000E+00  0.00000000E+00  0.00000000E+00
  0.00000000E+00  0.00000000E+00  0.00000000E+00
  0.00000000E+00  0.00000000E+00  0.00000000E+00
  0.00000000E+00  0.00000000E+00  0.00000000E+00
  0.00000000E+00  0.00000000E+00  0.00000000E+00
  0.00000000E+00  0.00000000E+00  0.00000000E+00
  0.00000000E+00  0.00000000E+00  0.00000000E+00
  0.00000000E+00  0.00000000E+00  0.00000000E+00
  0.00000000E+00  0.00000000E+00  0.00000000E+00
  0.00000000E+00  0.00000000E+00  0.00000000E+00
  0.00000000E+00  0.00000000E+00  0.00000000E+00
  0.00000000E+00  0.00000000E+00  0.00000000E+00
  0.00000000E+00  0.00000000E+00  0.00000000E+00
  0.00000000E+00  0.00000000E+00  0.00000000E+00
  0.00000000E+00  0.00000000E+00  0.00000000E+00
