crystal structure from VMoWS2 with Hexag
   1.00000000000000     
     8.3757987374449669    4.8576307103896053    0.0000000000000000
    -8.3468226632473304    4.8077103261256084    0.0000000000000000
     0.0000000000000000    0.0000000000000000   30.0000000000000000
   V    Mo   W    S 
     3     3     3    18
Direct
  0.6309057144597098  0.6434754512344102  0.0018106540741160
  0.6269988348971897  0.3130047019642014  0.0022206948523074
  0.7050531144870026  0.0203548262886171 -0.0031684491362629
  1.0263632461745875  0.3418168221609089 -0.0009416932068873
  0.3117981731810897  0.0110605483330903  0.0009376759000192
  0.3215131369189019  0.3252341017198423  0.0006491294254802
  0.0229498190308458  0.0300902950918797 -0.0003173790635799
  0.0351719565510089  0.6690259125975616 -0.0020123538516580
  0.3159428110824866  0.6378490018873200  0.0002124625534463
  0.1138434161738590  0.2250707032990134  0.9427461731202371
  0.2182182224768248  0.1141699232869400  0.0574059560287172
  0.1177781666719065  0.5544646192624663  0.9422432580369559
  0.2247325087938827  0.4428761548723693  0.0568790982271960
  0.1054240274490200  0.8886852077869043  0.9464926245286697
  0.2297154946304857  0.7783874309428827  0.0530839421418379
  0.4405499242564492  0.2207938386110491  0.9473212943408517
  0.5548577793748808  0.1083781315967896  0.0487872900015008
  0.4436969231216984  0.5526870804419988  0.9468653972801977
  0.5519717650833461  0.4421382432062336  0.0528650991162692
  0.4511568589250803  0.8931668735597577  0.9593868394606020
  0.5596431554592061  0.7832514464124560  0.0474720978645438
  0.7768768835515705  0.2321555288669122  0.9525312694290922
  0.8921302413351822  0.1158579066207543  0.0522473541867598
  0.7737119678935315  0.5518053506712326  0.9569597765973313
  0.8818300664429201  0.4414409756755387  0.0445985413804514
  0.7788275924147472  0.8861862570796655  0.9519301464111574
  0.8865526525995731  0.7747871200067975  0.0407929995006199
 
  0.00000000E+00  0.00000000E+00  0.00000000E+00
  0.00000000E+00  0.00000000E+00  0.00000000E+00
  0.00000000E+00  0.00000000E+00  0.00000000E+00
  0.00000000E+00  0.00000000E+00  0.00000000E+00
  0.00000000E+00  0.00000000E+00  0.00000000E+00
  0.00000000E+00  0.00000000E+00  0.00000000E+00
  0.00000000E+00  0.00000000E+00  0.00000000E+00
  0.00000000E+00  0.00000000E+00  0.00000000E+00
  0.00000000E+00  0.00000000E+00  0.00000000E+00
  0.00000000E+00  0.00000000E+00  0.00000000E+00
  0.00000000E+00  0.00000000E+00  0.00000000E+00
  0.00000000E+00  0.00000000E+00  0.00000000E+00
  0.00000000E+00  0.00000000E+00  0.00000000E+00
  0.00000000E+00  0.00000000E+00  0.00000000E+00
  0.00000000E+00  0.00000000E+00  0.00000000E+00
  0.00000000E+00  0.00000000E+00  0.00000000E+00
  0.00000000E+00  0.00000000E+00  0.00000000E+00
  0.00000000E+00  0.00000000E+00  0.00000000E+00
  0.00000000E+00  0.00000000E+00  0.00000000E+00
  0.00000000E+00  0.00000000E+00  0.00000000E+00
  0.00000000E+00  0.00000000E+00  0.00000000E+00
  0.00000000E+00  0.00000000E+00  0.00000000E+00
  0.00000000E+00  0.00000000E+00  0.00000000E+00
  0.00000000E+00  0.00000000E+00  0.00000000E+00
  0.00000000E+00  0.00000000E+00  0.00000000E+00
  0.00000000E+00  0.00000000E+00  0.00000000E+00
  0.00000000E+00  0.00000000E+00  0.00000000E+00
